RuN13-3                                 
   1.00000000000000     
    17.0990259999999985   -9.8721239999999995    0.0000000000000000
     0.0000000000000000   19.7442530000000005    0.0000000000000000
     0.0000000000000000    0.0000000000000000   20.0000000000000000
   H    C    N    Ru
     6   116    13     1
Selective dynamics
Direct
  0.4489231186571152  0.4111291932961607  0.1410344549255405   T   T   T
  0.5567217896556209  0.4660768385901087  0.1431381776382732   T   T   T
  0.4461730352005835  0.5354145919798621  0.1405141041508283   T   T   T
  0.6279008958817949  0.6164038138925306  0.1393506681050808   T   T   T
  0.5725942375711899  0.6152038863726036  0.2097172582136841   T   T   T
  0.5728337073447867  0.6658300508013648  0.1363636101864950   T   T   T
  0.0211136750577284  0.9789391015399465  0.9981040664725944   T   T   T
  0.1041659226743531  0.0200963269096343  0.9976468649565953   T   T   T
  0.1460458981576791  0.9785726030836266  0.9977867368050612   T   T   T
  0.2294337282835206  0.0204516669725016  0.9974044940053353   T   T   T
  0.2709445321943656  0.9782250891729268  0.9981044650078613   T   T   T
  0.3543749521375750  0.0202421357466107  0.9981898440291382   T   T   T
  0.3959565092818227  0.9781203051964171  0.9985834183671406   T   T   T
  0.4792163321995211  0.0206083860784798  0.9985727620455568   T   T   T
  0.5207943271917185  0.9784576003136198  0.9985609930180090   T   T   T
  0.6040649408996490  0.0206440373060239  0.9985206518666125   T   T   T
  0.6458274385879483  0.9785255351667805  0.9982703728832976   T   T   T
  0.7288582722875002  0.0206878951815606  0.9983653106658832   T   T   T
  0.7703595888596780  0.9787633727205975  0.9981826917597979   T   T   T
  0.8538334946961970  0.0206641491047764  0.9983113087483382   T   T   T
  0.8960977346035275  0.9795426179409834  0.9982698418514975   T   T   T
  0.9791751067490948  0.0207126025292770  0.9981118728052354   T   T   T
  0.0202848004529092  0.1037744140879447  0.9978449715517824   T   T   T
  0.1036618037157397  0.1450520188700753  0.9970924516371201   T   T   T
  0.1454236593254996  0.1034897155534854  0.9968972820178633   T   T   T
  0.2283755234937372  0.1449483288152872  0.9958852092185211   T   T   T
  0.2704249110370314  0.1037365717153653  0.9963944310206317   T   T   T
  0.3542675528891772  0.1460694182876346  0.9967918572522033   T   T   T
  0.3953397057653972  0.1036240376069952  0.9978648546075632   T   T   T
  0.4784487067297922  0.1465671913137740  0.9983473893711791   T   T   T
  0.5203187394175495  0.1044539946806261  0.9986313329999149   T   T   T
  0.6033603329094727  0.1469747696985267  0.9988942010819176   T   T   T
  0.6451861597580928  0.1045506160979080  0.9988024480371192   T   T   T
  0.7283061103026434  0.1463410750984357  0.9989575556408588   T   T   T
  0.7701862688394889  0.1044075974694202  0.9987327769636698   T   T   T
  0.8534218307326454  0.1458441168480906  0.9987517527078497   T   T   T
  0.8951740846650211  0.1040400619077355  0.9984653354693026   T   T   T
  0.9785698485437602  0.1454082257583093  0.9981696395977092   T   T   T
  0.0204043812409127  0.2288282618570459  0.9981210764976739   T   T   T
  0.1036363649479206  0.2698083794012457  0.9974425062217069   T   T   T
  0.1449556579366209  0.2278966614429779  0.9966874662701448   T   T   T
  0.2280600087528964  0.2689561738904279  0.9956316926260015   T   T   T
  0.2693436440442705  0.2280460605052835  0.9947191952026816   T   T   T
  0.3947636669601040  0.2285560576009310  0.9962033148223476   T   T   T
  0.5187989107238892  0.2293749156000605  0.9986184594425092   T   T   T
  0.6014349811185878  0.2735230947486320  0.9995382329723420   T   T   T
  0.6438200487104648  0.2306964975771767  0.9993183285057516   T   T   T
  0.7272533760443092  0.2721206161718022  0.9995389982891407   T   T   T
  0.7694316972605499  0.2300198634846126  0.9992504576014342   T   T   T
  0.8528607877343697  0.2711006847067258  0.9991680518514157   T   T   T
  0.8950268593927163  0.2293041465556599  0.9989048743786856   T   T   T
  0.9783356843388027  0.2704621071646071  0.9986374772805106   T   T   T
  0.0203225323270173  0.3538449729104999  0.9987923886579526   T   T   T
  0.1036172984751290  0.3947636556063496  0.9986020809751515   T   T   T
  0.1457650186926493  0.3535003654943782  0.9978335834425270   T   T   T
  0.2284256583113606  0.3939577212634094  0.9979337301213377   T   T   T
  0.3497802885648479  0.3905896523846384  0.0020354811542051   T   T   T
  0.3913124155417251  0.3501559609959842  0.9976400729608347   T   T   T
  0.5162808817566079  0.3548704970504561  0.9982771190112911   T   T   T
  0.6426019641885518  0.3566166613634147  0.0005177660990167   T   T   T
  0.7257232514619251  0.3979795955331207  0.0001580273606781   T   T   T
  0.7684199833161184  0.3555411039623418  0.9997723686949966   T   T   T
  0.8521235712960392  0.3960470597568005  0.9994182039621329   T   T   T
  0.8944541911596944  0.3543235499796069  0.9992278985776879   T   T   T
  0.9781831739493445  0.3955095757255703  0.9991072542517762   T   T   T
  0.0206076854280801  0.4786962759817229  0.9992773018898581   T   T   T
  0.1045358163313883  0.5198912346748976  0.9995561386004911   T   T   T
  0.1465752360534416  0.4779596638500619  0.9992899214386903   T   T   T
  0.2293857653597328  0.5183328290538157  0.9998822371741150   T   T   T
  0.3546407599039675  0.5156832748551877  0.0063185068423718   T   T   T
  0.6442937254213841  0.4831823276644069  0.0068549864509866   T   T   T
  0.7698052640897605  0.4807848027070870  0.9994204512941327   T   T   T
  0.8525806762261169  0.5210293978394885  0.9991222293327985   T   T   T
  0.8946633822114100  0.4791857579246764  0.9992506415905319   T   T   T
  0.9785016328365265  0.5203316595039398  0.9992813148711412   T   T   T
  0.0211591280094470  0.6036030607423788  0.9993815514613104   T   T   T
  0.1048897046415150  0.6448088551612698  0.9996937169802901   T   T   T
  0.1469968386878024  0.6028935326309156  0.9999685394258757   T   T   T
  0.2307425510574277  0.6434215513667126  0.0005087117291107   T   T   T
  0.2730479711311116  0.6009177162845524  0.0010006529483996   T   T   T
  0.3566152139864394  0.6422475461018052  0.0016403577043365   T   T   T
  0.4835986134009015  0.6435726161800308  0.0011959893951127   T   T   T
  0.5279661552840726  0.6054547785578384  0.0043715687624038   T   T   T
  0.6511435082634590  0.6084531938512421  0.0015899389161301   T   T   T
  0.7712569433283554  0.6049608786149602  0.9983597008891159   T   T   T
  0.8539356593550476  0.6456411924893507  0.9984332535258140   T   T   T
  0.8958970502358240  0.6042876219572370  0.9989255029669929   T   T   T
  0.9792534847799459  0.6453024123816676  0.9991642486851650   T   T   T
  0.0214612348747512  0.7286453014338545  0.9990811442623998   T   T   T
  0.1047971352623359  0.7698932204234864  0.9992477878313523   T   T   T
  0.1466732601989501  0.7279400600341295  0.9996485021570193   T   T   T
  0.2302102024631416  0.7691212766372846  0.9997598640863996   T   T   T
  0.2721149629550141  0.7268810914714366  0.0001849143348060   T   T   T
  0.3554774333283313  0.7679686523469521  0.9997411783315053   T   T   T
  0.3975067431460417  0.7251493031697224  0.0001043289131115   T   T   T
  0.4813439263576784  0.7693211316083182  0.9987394202537855   T   T   T
  0.5219004584791972  0.7270303541911821  0.9986107633674274   T   T   T
  0.6492291036076943  0.7315326027761561  0.9968312037938004   T   T   T
  0.7309564026565782  0.7715664624420197  0.9970483818031555   T   T   T
  0.7732824864546766  0.7307108315007844  0.9970936308370807   T   T   T
  0.8554028837932739  0.7714070950500291  0.9977869110971322   T   T   T
  0.8965410775308990  0.7292472961422902  0.9982041410509165   T   T   T
  0.9796289796397775  0.7703662299054371  0.9986707033059848   T   T   T
  0.0213991766489744  0.8538214238950371  0.9984999054671185   T   T   T
  0.1046590525830162  0.8951243634223788  0.9984223368120512   T   T   T
  0.1463517038643865  0.8532790263916752  0.9988493815485646   T   T   T
  0.2297788058865081  0.8949008993307870  0.9987723117507180   T   T   T
  0.2715082022321554  0.8526160737810806  0.9992232834865218   T   T   T
  0.3547684870152139  0.8941917549373823  0.9989469017808569   T   T   T
  0.3963601021041817  0.8518381725322985  0.9990410800131363   T   T   T
  0.4797891289851552  0.8946018199877223  0.9986559859640658   T   T   T
  0.5211318406451196  0.8526288041063628  0.9983713983983070   T   T   T
  0.6045240352776229  0.8943519074944304  0.9980385486928703   T   T   T
  0.6462748766816651  0.8532288727763673  0.9978245787830738   T   T   T
  0.7292036720225435  0.8950181487725754  0.9978943212786566   T   T   T
  0.7725454571732403  0.8549313715777243  0.9977791747360947   T   T   T
  0.8549211551224518  0.8962784193451532  0.9981316413975923   T   T   T
  0.8967940103067412  0.8546208375238642  0.9981071959416271   T   T   T
  0.9797688846860928  0.8956841263939137  0.9982946939339130   T   T   T
  0.5027555878685608  0.4659723966601618  0.1300547618388687   T   T   T
  0.5022278781271503  0.5384041611160815  0.1302091074591306   T   T   T
  0.5726750303632231  0.6131004560642382  0.1545570504648970   T   T   T
  0.3521651596280448  0.2676289731348224  0.9928368432677259   T   T   T
  0.4770194986274734  0.2713965590040761  0.9980131630489865   T   T   T
  0.2673927768435848  0.3517732756101804  0.9963094803244267   T   T   T
  0.4712059239493718  0.3886308542458788  0.0001211128241780   T   T   T
  0.5992573858969024  0.3996549264467953  0.0016913719652897   T   T   T
  0.2710819503427441  0.4760342263147319  0.9991998727415398   T   T   T
  0.3878586840420360  0.4705163717568999  0.0134006113111016   T   T   T
  0.6119262342305564  0.5305516415310170  0.0114259107563775   T   T   T
  0.7279922723476617  0.5225664702336270  0.9990654694098768   T   T   T
  0.3981548636113508  0.5984561659637015  0.0035405148328291   T   T   T
  0.6105238329139970  0.6500501749321493  0.9988619179679287   T   T   T
  0.7328155026773977  0.6482797819210394  0.9969138850590121   T   T   T
  0.6052070546040061  0.7691537552261469  0.9977395503886223   T   T   T
  0.4992621409211287  0.4999208516215154  0.0279047331379993   T   T   T
 
  0.00000000E+00  0.00000000E+00  0.00000000E+00
  0.00000000E+00  0.00000000E+00  0.00000000E+00
  0.00000000E+00  0.00000000E+00  0.00000000E+00
  0.00000000E+00  0.00000000E+00  0.00000000E+00
  0.00000000E+00  0.00000000E+00  0.00000000E+00
  0.00000000E+00  0.00000000E+00  0.00000000E+00
  0.00000000E+00  0.00000000E+00  0.00000000E+00
  0.00000000E+00  0.00000000E+00  0.00000000E+00
  0.00000000E+00  0.00000000E+00  0.00000000E+00
  0.00000000E+00  0.00000000E+00  0.00000000E+00
  0.00000000E+00  0.00000000E+00  0.00000000E+00
  0.00000000E+00  0.00000000E+00  0.00000000E+00
  0.00000000E+00  0.00000000E+00  0.00000000E+00
  0.00000000E+00  0.00000000E+00  0.00000000E+00
  0.00000000E+00  0.00000000E+00  0.00000000E+00
  0.00000000E+00  0.00000000E+00  0.00000000E+00
  0.00000000E+00  0.00000000E+00  0.00000000E+00
  0.00000000E+00  0.00000000E+00  0.00000000E+00
  0.00000000E+00  0.00000000E+00  0.00000000E+00
  0.00000000E+00  0.00000000E+00  0.00000000E+00
  0.00000000E+00  0.00000000E+00  0.00000000E+00
  0.00000000E+00  0.00000000E+00  0.00000000E+00
  0.00000000E+00  0.00000000E+00  0.00000000E+00
  0.00000000E+00  0.00000000E+00  0.00000000E+00
  0.00000000E+00  0.00000000E+00  0.00000000E+00
  0.00000000E+00  0.00000000E+00  0.00000000E+00
  0.00000000E+00  0.00000000E+00  0.00000000E+00
  0.00000000E+00  0.00000000E+00  0.00000000E+00
  0.00000000E+00  0.00000000E+00  0.00000000E+00
  0.00000000E+00  0.00000000E+00  0.00000000E+00
  0.00000000E+00  0.00000000E+00  0.00000000E+00
  0.00000000E+00  0.00000000E+00  0.00000000E+00
  0.00000000E+00  0.00000000E+00  0.00000000E+00
  0.00000000E+00  0.00000000E+00  0.00000000E+00
  0.00000000E+00  0.00000000E+00  0.00000000E+00
  0.00000000E+00  0.00000000E+00  0.00000000E+00
  0.00000000E+00  0.00000000E+00  0.00000000E+00
  0.00000000E+00  0.00000000E+00  0.00000000E+00
  0.00000000E+00  0.00000000E+00  0.00000000E+00
  0.00000000E+00  0.00000000E+00  0.00000000E+00
  0.00000000E+00  0.00000000E+00  0.00000000E+00
  0.00000000E+00  0.00000000E+00  0.00000000E+00
  0.00000000E+00  0.00000000E+00  0.00000000E+00
  0.00000000E+00  0.00000000E+00  0.00000000E+00
  0.00000000E+00  0.00000000E+00  0.00000000E+00
  0.00000000E+00  0.00000000E+00  0.00000000E+00
  0.00000000E+00  0.00000000E+00  0.00000000E+00
  0.00000000E+00  0.00000000E+00  0.00000000E+00
  0.00000000E+00  0.00000000E+00  0.00000000E+00
  0.00000000E+00  0.00000000E+00  0.00000000E+00
  0.00000000E+00  0.00000000E+00  0.00000000E+00
  0.00000000E+00  0.00000000E+00  0.00000000E+00
  0.00000000E+00  0.00000000E+00  0.00000000E+00
  0.00000000E+00  0.00000000E+00  0.00000000E+00
  0.00000000E+00  0.00000000E+00  0.00000000E+00
  0.00000000E+00  0.00000000E+00  0.00000000E+00
  0.00000000E+00  0.00000000E+00  0.00000000E+00
  0.00000000E+00  0.00000000E+00  0.00000000E+00
  0.00000000E+00  0.00000000E+00  0.00000000E+00
  0.00000000E+00  0.00000000E+00  0.00000000E+00
  0.00000000E+00  0.00000000E+00  0.00000000E+00
  0.00000000E+00  0.00000000E+00  0.00000000E+00
  0.00000000E+00  0.00000000E+00  0.00000000E+00
  0.00000000E+00  0.00000000E+00  0.00000000E+00
  0.00000000E+00  0.00000000E+00  0.00000000E+00
  0.00000000E+00  0.00000000E+00  0.00000000E+00
  0.00000000E+00  0.00000000E+00  0.00000000E+00
  0.00000000E+00  0.00000000E+00  0.00000000E+00
  0.00000000E+00  0.00000000E+00  0.00000000E+00
  0.00000000E+00  0.00000000E+00  0.00000000E+00
  0.00000000E+00  0.00000000E+00  0.00000000E+00
  0.00000000E+00  0.00000000E+00  0.00000000E+00
  0.00000000E+00  0.00000000E+00  0.00000000E+00
  0.00000000E+00  0.00000000E+00  0.00000000E+00
  0.00000000E+00  0.00000000E+00  0.00000000E+00
  0.00000000E+00  0.00000000E+00  0.00000000E+00
  0.00000000E+00  0.00000000E+00  0.00000000E+00
  0.00000000E+00  0.00000000E+00  0.00000000E+00
  0.00000000E+00  0.00000000E+00  0.00000000E+00
  0.00000000E+00  0.00000000E+00  0.00000000E+00
  0.00000000E+00  0.00000000E+00  0.00000000E+00
  0.00000000E+00  0.00000000E+00  0.00000000E+00
  0.00000000E+00  0.00000000E+00  0.00000000E+00
  0.00000000E+00  0.00000000E+00  0.00000000E+00
  0.00000000E+00  0.00000000E+00  0.00000000E+00
  0.00000000E+00  0.00000000E+00  0.00000000E+00
  0.00000000E+00  0.00000000E+00  0.00000000E+00
  0.00000000E+00  0.00000000E+00  0.00000000E+00
  0.00000000E+00  0.00000000E+00  0.00000000E+00
  0.00000000E+00  0.00000000E+00  0.00000000E+00
  0.00000000E+00  0.00000000E+00  0.00000000E+00
  0.00000000E+00  0.00000000E+00  0.00000000E+00
  0.00000000E+00  0.00000000E+00  0.00000000E+00
  0.00000000E+00  0.00000000E+00  0.00000000E+00
  0.00000000E+00  0.00000000E+00  0.00000000E+00
  0.00000000E+00  0.00000000E+00  0.00000000E+00
  0.00000000E+00  0.00000000E+00  0.00000000E+00
  0.00000000E+00  0.00000000E+00  0.00000000E+00
  0.00000000E+00  0.00000000E+00  0.00000000E+00
  0.00000000E+00  0.00000000E+00  0.00000000E+00
  0.00000000E+00  0.00000000E+00  0.00000000E+00
  0.00000000E+00  0.00000000E+00  0.00000000E+00
  0.00000000E+00  0.00000000E+00  0.00000000E+00
  0.00000000E+00  0.00000000E+00  0.00000000E+00
  0.00000000E+00  0.00000000E+00  0.00000000E+00
  0.00000000E+00  0.00000000E+00  0.00000000E+00
  0.00000000E+00  0.00000000E+00  0.00000000E+00
  0.00000000E+00  0.00000000E+00  0.00000000E+00
  0.00000000E+00  0.00000000E+00  0.00000000E+00
  0.00000000E+00  0.00000000E+00  0.00000000E+00
  0.00000000E+00  0.00000000E+00  0.00000000E+00
  0.00000000E+00  0.00000000E+00  0.00000000E+00
  0.00000000E+00  0.00000000E+00  0.00000000E+00
  0.00000000E+00  0.00000000E+00  0.00000000E+00
  0.00000000E+00  0.00000000E+00  0.00000000E+00
  0.00000000E+00  0.00000000E+00  0.00000000E+00
  0.00000000E+00  0.00000000E+00  0.00000000E+00
  0.00000000E+00  0.00000000E+00  0.00000000E+00
  0.00000000E+00  0.00000000E+00  0.00000000E+00
  0.00000000E+00  0.00000000E+00  0.00000000E+00
  0.00000000E+00  0.00000000E+00  0.00000000E+00
  0.00000000E+00  0.00000000E+00  0.00000000E+00
  0.00000000E+00  0.00000000E+00  0.00000000E+00
  0.00000000E+00  0.00000000E+00  0.00000000E+00
  0.00000000E+00  0.00000000E+00  0.00000000E+00
  0.00000000E+00  0.00000000E+00  0.00000000E+00
  0.00000000E+00  0.00000000E+00  0.00000000E+00
  0.00000000E+00  0.00000000E+00  0.00000000E+00
  0.00000000E+00  0.00000000E+00  0.00000000E+00
  0.00000000E+00  0.00000000E+00  0.00000000E+00
  0.00000000E+00  0.00000000E+00  0.00000000E+00
  0.00000000E+00  0.00000000E+00  0.00000000E+00
  0.00000000E+00  0.00000000E+00  0.00000000E+00
  0.00000000E+00  0.00000000E+00  0.00000000E+00
  0.00000000E+00  0.00000000E+00  0.00000000E+00
  0.00000000E+00  0.00000000E+00  0.00000000E+00
