 H  C  N Ru                             
   1.00000000000000     
    17.0990259999999985   -9.8721239999999995    0.0000000000000000
     0.0000000000000000   19.7442530000000005    0.0000000000000000
     0.0000000000000000    0.0000000000000000   20.0000000000000000
   H    C    N    Ru
     6   127     2     1
Direct
  0.4550466462681932  0.5715468708620818  0.1464647277852894
  0.4267853574648700  0.4706369443284604  0.1700937190374459
  0.5959258386923533  0.6070451926372897  0.1439892579130071
  0.5327455432452245  0.4309069738303953  0.1772114573852059
  0.5890173127516926  0.5078575830549149  0.2342232455469355
  0.6319227165910718  0.5009512209569603  0.1582495075242863
  0.0209929199521521  0.9809882844373654  0.9858140267403352
  0.1040669870052331  0.0222761659405178  0.9881496251838401
  0.1462794605155228  0.9809859406830231  0.9900495874911922
  0.2294742562800619  0.0226708259769029  0.9932608430917665
  0.2712830236848254  0.9810198430992529  0.9955866882432667
  0.3544461897147152  0.0229148325433014  0.9981655555536835
  0.3960037562331284  0.9808405882139097 -0.0004695421056958
  0.4791508379940202  0.0228917058655187  0.0001068440940153
  0.5205476489332274  0.9805096539957691 -0.0006092585176398
  0.6036793541132535  0.0225377877514058 -0.0023855648143078
  0.6451962987044564  0.9804528698570981  0.9949710636238194
  0.7283760501836871  0.0223666132402944  0.9922340851054526
  0.7701501532096372  0.9806725647861502  0.9889511279605714
  0.8534136735814705  0.0223655560356274  0.9873387825984564
  0.8956447848517045  0.9810658457179161  0.9853333632251998
  0.9787831006772599  0.0223737471353135  0.9857701994941490
  0.0195916681438561  0.1053470885008489  0.9879473097582685
  0.1025685193988383  0.1465074280455816  0.9898789991641194
  0.1448355942959391  0.1052723751871504  0.9900293491803234
  0.2279029730045135  0.1467817827327344  0.9933962323223321
  0.2705408508510913  0.1059593968922899  0.9946615622598369
  0.3537972708584100  0.1482384217647341  0.9979141324373592
  0.3956167044043325  0.1066461014756731 -0.0007909477602861
  0.4788354820350200  0.1492170400670602  0.0013384713964500
  0.5202975928576205  0.1068392697094411  0.0008158232831445
  0.6034393166707290  0.1486463508809845  0.0004742237659215
  0.6448873358921575  0.1062936047424258 -0.0017711135358262
  0.7280701276971888  0.1478103081459413  0.9966890651273901
  0.7696462365250267  0.1058213905683510  0.9935378470975792
  0.8528427975850668  0.1473308980089865  0.9922677875184436
  0.8945444233513138  0.1055591317841510  0.9893494453148810
  0.9776620765513960  0.1469203092582012  0.9895241629725249
  0.0188488372230497  0.2300560275775245  0.9926385914403982
  0.1017819520450845  0.2712788347865703  0.9945526375467837
  0.1432980078643820  0.2293898594216446  0.9932446112580950
  0.2258962540346239  0.2703344985431478  0.9964502673516140
  0.2683330633602234  0.2295611340497074  0.9965924344261343
  0.3513165879020133  0.2717430406819328 -0.0000434016586554
  0.3947744943411949  0.2319504993758328  0.0001541077500615
  0.4781964678663772  0.2757098038882728  0.0033802987371162
  0.5199509998740371  0.2333395918532489  0.0032238777921896
  0.6032675206180713  0.2750431712114412  0.0040485804558690
  0.6446864932062496  0.2324426340914942  0.0018459937369166
  0.7279956646917877  0.2734241785590152  0.0007605966472959
  0.7694666279386353  0.2312940451367416 -0.0018771202285434
  0.8527586408174727  0.2726034276666210  0.9970894808267873
  0.8942352345344264  0.2306260348226757  0.9945191992320364
  0.9774442903139546  0.2720326578134544  0.9947229706639432
  0.0191550532173298  0.3553261835885564  0.9974110405199411
  0.1023170658265757  0.3966867089150492  0.9992793266480278
  0.1429707885939765  0.3543542306586123  0.9986959278469034
  0.2256362149410809  0.3953711678980401  0.0024884959939376
  0.2659284908437278  0.3530167890132359  0.0013160805400589
  0.3475511564097510  0.3944318117946804  0.0069098478877540
  0.3913338291381947  0.3546032512355048  0.0035912120104373
  0.5188399219344682  0.3607856791951883  0.0065245839178982
  0.6032259570654787  0.4020585683016551  0.0091137242333580
  0.6446029810196272  0.3590620845712543  0.0060333064038863
  0.7282981906924780  0.3991009676156806  0.0035635478122521
  0.7696876060366979  0.3568178825958178  0.0014653869289610
  0.8531917237447356  0.3979652938028402 -0.0003435307367983
  0.8945951240780597  0.3559503963199450  0.9983457890635732
  0.9779643327262584  0.3973472661190659  0.9983780388793593
  0.0204627831293338  0.4806722026143400 -0.0006642853133950
  0.1039437571798786  0.5220308890837299  0.0007738420982572
  0.1451410897867941  0.4799970164249999  0.0016102496601935
  0.2286290583102636  0.5211631186407678  0.0045728110282466
  0.2690912472222486  0.4783594961093517  0.0062756518591722
  0.3524378469072597  0.5172722781453962  0.0123215184719761
  0.6475126048004296  0.4862863965160702  0.0098162448155634
  0.7306151837706854  0.5250525656972989  0.0020544606024205
  0.7710858010285683  0.4822296432021011  0.0011511881696147
  0.8545676734858451  0.5233611671427155 -0.0017693890419981
  0.8957418309881199  0.4813010003204595 -0.0011700833681284
  0.9792236009981301  0.5226577990185001 -0.0014875678563626
  0.0217616031602726  0.6059886847755842  0.9972764386226231
  0.1051201805577393  0.6473499761545772  0.9985614710057090
  0.1465127119669228  0.6053699937696257  0.0010608557554645
  0.2300249709746248  0.6465636565251969  0.0031688024800537
  0.2714810919045002  0.6043619811958433  0.0057468471036308
  0.3552225954415394  0.6445142367040402  0.0074664560694248
  0.3968862419232035  0.6017353386952958  0.0107218090242777
  0.4809917902007242  0.6430516622795742  0.0069515831700807
  0.6089943429449436  0.6492328231706950  0.0000864357627222
  0.6520769335397459  0.6090078649663794  0.0025041415974842
  0.7334663666485108  0.6500393599404625 -0.0060129937273899
  0.7739584161960242  0.6078874750807827 -0.0037366080217003
  0.8565979768678509  0.6488301286406121 -0.0072508354223977
  0.8973453909133086  0.6065928444051618 -0.0049023935724729
  0.9805315182561738  0.6479528649842069  0.9946450891632602
  0.0222375166140368  0.7312508514344036  0.9923678193316159
  0.1054145100549242  0.7726434556775473  0.9940862173063969
  0.1468802726253471  0.7307060503144421  0.9974497388494783
  0.2301413608452622  0.7720555062316773  0.9993487728983400
  0.2716667514203005  0.7299719211365121  0.0021651699408890
  0.3549852167882184  0.7709854487827811  0.0027886644157776
  0.3965223089354959  0.7284568998411187  0.0045050397244726
  0.4797791169815244  0.7701098294600749  0.0017714955010647
  0.5215774979886435  0.7277520928279572  0.0010335872892476
  0.6049276617621118  0.7714788326851617 -0.0048937213817743
  0.6483642629272131  0.7316190332479818 -0.0069723420233909
  0.7312142393097648  0.7736625116991444  0.9881058792237758
  0.7735174601697796  0.7327100322628461  0.9879456956470022
  0.8562835408736827  0.7737353058580738  0.9859519313040105
  0.8978318754140209  0.7319043089764825  0.9885223886505201
  0.9808195365877451  0.7731843908577968  0.9889267370584534
  0.0220491562071697  0.8563834627754940  0.9874658941243498
  0.1051682393443113  0.8977732858811248  0.9898294396750263
  0.1468688394485749  0.8560028517402016  0.9929501200272526
  0.2300147155032325  0.8975386881583770  0.9955488569269307
  0.2715792782240916  0.8555485629121721  0.9983583128107226
  0.3547648068217287  0.8970946537521658  0.9997824471692643
  0.3962308859680777  0.8547540934304371  0.0011018625108455
  0.4793830227881854  0.8965677424538737  0.0000935591372513
  0.5208715853118694  0.8542126638361006 -0.0008894903913531
  0.6040265902250425  0.8967140348322876  0.9955044308743256
  0.6457908678569819  0.8550283482483032  0.9926230431796046
  0.7290966984188265  0.8973631104537865  0.9886865049224640
  0.7716897281290351  0.8565310192273523  0.9862637332581596
  0.8548226777227731  0.8980297158057181  0.9845600425000158
  0.8970784779181599  0.8567268465809005  0.9843813713350484
  0.9801162442767271  0.8979520185038208  0.9852620908090388
  0.4709055701604491  0.5258702177227259  0.1474799950219264
  0.5509793075714661  0.5451249220187696  0.1474867989626541
  0.5775657860663990  0.4933142885537908  0.1805586521215914
  0.5273019522261068  0.6052157521311142  0.0100958843368319
  0.4737178318100241  0.3995870712720234  0.0059756204425883
  0.3883922360147616  0.4732157737762943  0.0173152843368272
  0.6114953443465454  0.5304542670974240  0.0159849448799908
  0.5008029655675956  0.5031484435193619  0.0492331907660736
 
  0.00000000E+00  0.00000000E+00  0.00000000E+00
  0.00000000E+00  0.00000000E+00  0.00000000E+00
  0.00000000E+00  0.00000000E+00  0.00000000E+00
  0.00000000E+00  0.00000000E+00  0.00000000E+00
  0.00000000E+00  0.00000000E+00  0.00000000E+00
  0.00000000E+00  0.00000000E+00  0.00000000E+00
  0.00000000E+00  0.00000000E+00  0.00000000E+00
  0.00000000E+00  0.00000000E+00  0.00000000E+00
  0.00000000E+00  0.00000000E+00  0.00000000E+00
  0.00000000E+00  0.00000000E+00  0.00000000E+00
  0.00000000E+00  0.00000000E+00  0.00000000E+00
  0.00000000E+00  0.00000000E+00  0.00000000E+00
  0.00000000E+00  0.00000000E+00  0.00000000E+00
  0.00000000E+00  0.00000000E+00  0.00000000E+00
  0.00000000E+00  0.00000000E+00  0.00000000E+00
  0.00000000E+00  0.00000000E+00  0.00000000E+00
  0.00000000E+00  0.00000000E+00  0.00000000E+00
  0.00000000E+00  0.00000000E+00  0.00000000E+00
  0.00000000E+00  0.00000000E+00  0.00000000E+00
  0.00000000E+00  0.00000000E+00  0.00000000E+00
  0.00000000E+00  0.00000000E+00  0.00000000E+00
  0.00000000E+00  0.00000000E+00  0.00000000E+00
  0.00000000E+00  0.00000000E+00  0.00000000E+00
  0.00000000E+00  0.00000000E+00  0.00000000E+00
  0.00000000E+00  0.00000000E+00  0.00000000E+00
  0.00000000E+00  0.00000000E+00  0.00000000E+00
  0.00000000E+00  0.00000000E+00  0.00000000E+00
  0.00000000E+00  0.00000000E+00  0.00000000E+00
  0.00000000E+00  0.00000000E+00  0.00000000E+00
  0.00000000E+00  0.00000000E+00  0.00000000E+00
  0.00000000E+00  0.00000000E+00  0.00000000E+00
  0.00000000E+00  0.00000000E+00  0.00000000E+00
  0.00000000E+00  0.00000000E+00  0.00000000E+00
  0.00000000E+00  0.00000000E+00  0.00000000E+00
  0.00000000E+00  0.00000000E+00  0.00000000E+00
  0.00000000E+00  0.00000000E+00  0.00000000E+00
  0.00000000E+00  0.00000000E+00  0.00000000E+00
  0.00000000E+00  0.00000000E+00  0.00000000E+00
  0.00000000E+00  0.00000000E+00  0.00000000E+00
  0.00000000E+00  0.00000000E+00  0.00000000E+00
  0.00000000E+00  0.00000000E+00  0.00000000E+00
  0.00000000E+00  0.00000000E+00  0.00000000E+00
  0.00000000E+00  0.00000000E+00  0.00000000E+00
  0.00000000E+00  0.00000000E+00  0.00000000E+00
  0.00000000E+00  0.00000000E+00  0.00000000E+00
  0.00000000E+00  0.00000000E+00  0.00000000E+00
  0.00000000E+00  0.00000000E+00  0.00000000E+00
  0.00000000E+00  0.00000000E+00  0.00000000E+00
  0.00000000E+00  0.00000000E+00  0.00000000E+00
  0.00000000E+00  0.00000000E+00  0.00000000E+00
  0.00000000E+00  0.00000000E+00  0.00000000E+00
  0.00000000E+00  0.00000000E+00  0.00000000E+00
  0.00000000E+00  0.00000000E+00  0.00000000E+00
  0.00000000E+00  0.00000000E+00  0.00000000E+00
  0.00000000E+00  0.00000000E+00  0.00000000E+00
  0.00000000E+00  0.00000000E+00  0.00000000E+00
  0.00000000E+00  0.00000000E+00  0.00000000E+00
  0.00000000E+00  0.00000000E+00  0.00000000E+00
  0.00000000E+00  0.00000000E+00  0.00000000E+00
  0.00000000E+00  0.00000000E+00  0.00000000E+00
  0.00000000E+00  0.00000000E+00  0.00000000E+00
  0.00000000E+00  0.00000000E+00  0.00000000E+00
  0.00000000E+00  0.00000000E+00  0.00000000E+00
  0.00000000E+00  0.00000000E+00  0.00000000E+00
  0.00000000E+00  0.00000000E+00  0.00000000E+00
  0.00000000E+00  0.00000000E+00  0.00000000E+00
  0.00000000E+00  0.00000000E+00  0.00000000E+00
  0.00000000E+00  0.00000000E+00  0.00000000E+00
  0.00000000E+00  0.00000000E+00  0.00000000E+00
  0.00000000E+00  0.00000000E+00  0.00000000E+00
  0.00000000E+00  0.00000000E+00  0.00000000E+00
  0.00000000E+00  0.00000000E+00  0.00000000E+00
  0.00000000E+00  0.00000000E+00  0.00000000E+00
  0.00000000E+00  0.00000000E+00  0.00000000E+00
  0.00000000E+00  0.00000000E+00  0.00000000E+00
  0.00000000E+00  0.00000000E+00  0.00000000E+00
  0.00000000E+00  0.00000000E+00  0.00000000E+00
  0.00000000E+00  0.00000000E+00  0.00000000E+00
  0.00000000E+00  0.00000000E+00  0.00000000E+00
  0.00000000E+00  0.00000000E+00  0.00000000E+00
  0.00000000E+00  0.00000000E+00  0.00000000E+00
  0.00000000E+00  0.00000000E+00  0.00000000E+00
  0.00000000E+00  0.00000000E+00  0.00000000E+00
  0.00000000E+00  0.00000000E+00  0.00000000E+00
  0.00000000E+00  0.00000000E+00  0.00000000E+00
  0.00000000E+00  0.00000000E+00  0.00000000E+00
  0.00000000E+00  0.00000000E+00  0.00000000E+00
  0.00000000E+00  0.00000000E+00  0.00000000E+00
  0.00000000E+00  0.00000000E+00  0.00000000E+00
  0.00000000E+00  0.00000000E+00  0.00000000E+00
  0.00000000E+00  0.00000000E+00  0.00000000E+00
  0.00000000E+00  0.00000000E+00  0.00000000E+00
  0.00000000E+00  0.00000000E+00  0.00000000E+00
  0.00000000E+00  0.00000000E+00  0.00000000E+00
  0.00000000E+00  0.00000000E+00  0.00000000E+00
  0.00000000E+00  0.00000000E+00  0.00000000E+00
  0.00000000E+00  0.00000000E+00  0.00000000E+00
  0.00000000E+00  0.00000000E+00  0.00000000E+00
  0.00000000E+00  0.00000000E+00  0.00000000E+00
  0.00000000E+00  0.00000000E+00  0.00000000E+00
  0.00000000E+00  0.00000000E+00  0.00000000E+00
  0.00000000E+00  0.00000000E+00  0.00000000E+00
  0.00000000E+00  0.00000000E+00  0.00000000E+00
  0.00000000E+00  0.00000000E+00  0.00000000E+00
  0.00000000E+00  0.00000000E+00  0.00000000E+00
  0.00000000E+00  0.00000000E+00  0.00000000E+00
  0.00000000E+00  0.00000000E+00  0.00000000E+00
  0.00000000E+00  0.00000000E+00  0.00000000E+00
  0.00000000E+00  0.00000000E+00  0.00000000E+00
  0.00000000E+00  0.00000000E+00  0.00000000E+00
  0.00000000E+00  0.00000000E+00  0.00000000E+00
  0.00000000E+00  0.00000000E+00  0.00000000E+00
  0.00000000E+00  0.00000000E+00  0.00000000E+00
  0.00000000E+00  0.00000000E+00  0.00000000E+00
  0.00000000E+00  0.00000000E+00  0.00000000E+00
  0.00000000E+00  0.00000000E+00  0.00000000E+00
  0.00000000E+00  0.00000000E+00  0.00000000E+00
  0.00000000E+00  0.00000000E+00  0.00000000E+00
  0.00000000E+00  0.00000000E+00  0.00000000E+00
  0.00000000E+00  0.00000000E+00  0.00000000E+00
  0.00000000E+00  0.00000000E+00  0.00000000E+00
  0.00000000E+00  0.00000000E+00  0.00000000E+00
  0.00000000E+00  0.00000000E+00  0.00000000E+00
  0.00000000E+00  0.00000000E+00  0.00000000E+00
  0.00000000E+00  0.00000000E+00  0.00000000E+00
  0.00000000E+00  0.00000000E+00  0.00000000E+00
  0.00000000E+00  0.00000000E+00  0.00000000E+00
  0.00000000E+00  0.00000000E+00  0.00000000E+00
  0.00000000E+00  0.00000000E+00  0.00000000E+00
  0.00000000E+00  0.00000000E+00  0.00000000E+00
  0.00000000E+00  0.00000000E+00  0.00000000E+00
  0.00000000E+00  0.00000000E+00  0.00000000E+00
  0.00000000E+00  0.00000000E+00  0.00000000E+00
  0.00000000E+00  0.00000000E+00  0.00000000E+00
  0.00000000E+00  0.00000000E+00  0.00000000E+00
  0.00000000E+00  0.00000000E+00  0.00000000E+00
