RuN10                                   
   1.00000000000000     
    17.0990259999999985   -9.8721239999999995    0.0000000000000000
     0.0000000000000000   19.7442530000000005    0.0000000000000000
     0.0000000000000000    0.0000000000000000   20.0000000000000000
   H    C    N    Ru
     6   119    10     1
Selective dynamics
Direct
  0.4450661606364406  0.4062776777294133  0.1344424328226540   T   T   T
  0.5525800307515083  0.4622366687783960  0.1398352143154417   T   T   T
  0.4404543690908651  0.5296132206445829  0.1375062808226132   T   T   T
  0.6223732707104493  0.6120920547491123  0.1388798343636961   T   T   T
  0.5655464853595032  0.6100852107857855  0.2084898263379907   T   T   T
  0.5669984130274817  0.6610519285542036  0.1350318652569419   T   T   T
  0.0213864200474003  0.9789692732787765  0.9987246220655024   T   T   T
  0.1044072178201986  0.0200477386270150  0.9988576608190597   T   T   T
  0.1461448924991850  0.9784616738730378  0.9988774243908318   T   T   T
  0.2295260903025359  0.0201996257947567  0.9988456059383677   T   T   T
  0.2714583480509540  0.9784095555764601  0.9991658208907851   T   T   T
  0.3544849247459778  0.0202760871501427  0.9991603013911927   T   T   T
  0.3963333432522463  0.9783694267697329  0.9994255730910008   T   T   T
  0.4796277838035008  0.0208617782035829  0.9992638762175882   T   T   T
  0.5212779858864838  0.9788994172558063  0.9991726608709235   T   T   T
  0.6045666585947046  0.0213859962881265  0.9989511747683351   T   T   T
  0.6464153891274996  0.9794654398453108  0.9984940064562098   T   T   T
  0.7294348526071691  0.0213326350485363  0.9985186729688120   T   T   T
  0.7713564141970612  0.9795364589050649  0.9981141530608534   T   T   T
  0.8547354678999359  0.0212730571354109  0.9986184467441956   T   T   T
  0.8964747920646547  0.9796821626197859  0.9984845771964281   T   T   T
  0.9794963766185791  0.0207640971002819  0.9988252625985223   T   T   T
  0.0205491895800132  0.1037648577753151  0.9990541969185176   T   T   T
  0.1037677822784673  0.1448032024706019  0.9989119250449319   T   T   T
  0.1454349537077485  0.1032757481760901  0.9988009417630972   T   T   T
  0.2282989885029529  0.1446078594555188  0.9984297408539871   T   T   T
  0.2702881489994922  0.1029918494333420  0.9984353996377986   T   T   T
  0.3536524789637074  0.1453421391892340  0.9983979020448673   T   T   T
  0.3957201029499786  0.1039720954706603  0.9988481122646788   T   T   T
  0.4789382573366867  0.1464870347079787  0.9990692372417007   T   T   T
  0.5208113175464316  0.1046428730624887  0.9992151673834320   T   T   T
  0.6038509514785337  0.1471948272855433  0.9993498527093982   T   T   T
  0.6456278144614054  0.1050566259269424  0.9991916168457885   T   T   T
  0.7289541710308803  0.1467605537666352  0.9993047120629229   T   T   T
  0.7707582583843851  0.1048111457643937  0.9990688893497212   T   T   T
  0.8539748139212446  0.1462782260191225  0.9992657348668111   T   T   T
  0.8958699662480631  0.1043628505302230  0.9991134859802346   T   T   T
  0.9789240492706121  0.1454756504255462  0.9992059516580432   T   T   T
  0.0206634831894973  0.2288675767192122  0.9992646506654458   T   T   T
  0.1034361858651934  0.2696242050021920  0.9990950644885761   T   T   T
  0.1450794004827387  0.2276479209877066  0.9988511557696685   T   T   T
  0.2277706388169384  0.2684774010827549  0.9984303280542791   T   T   T
  0.2691705513643878  0.2273741304361624  0.9980009758499110   T   T   T
  0.3942464954281730  0.2283127175351332  0.9982790041697530   T   T   T
  0.4774417442615064  0.2715056559177974  0.9995077490697474   T   T   T
  0.5190319071057335  0.2297610689768245  0.9994794847117690   T   T   T
  0.6026140762432066  0.2736848443982570  0.0001972160633358   T   T   T
  0.6448857254943423  0.2313195879840781  0.9997458918155163   T   T   T
  0.7280850213903920  0.2722594570598187  0.9997853392675381   T   T   T
  0.7702053939015162  0.2301273205159935  0.9995614539484778   T   T   T
  0.8535526877467792  0.2713486281524966  0.9995106381205097   T   T   T
  0.8954547639382273  0.2294971343224388  0.9994465114914397   T   T   T
  0.9789248045163220  0.2708178753581857  0.9993850961375850   T   T   T
  0.0208087928826810  0.3538596110529412  0.9993335570556424   T   T   T
  0.1044336260526579  0.3950699766722888  0.9993657557191682   T   T   T
  0.1456975960762271  0.3529483542575600  0.9993044313435128   T   T   T
  0.2286587159648463  0.3935764130508529  0.9998172325658383   T   T   T
  0.3495182167652918  0.3902376227732228  0.0035356946382885   T   T   T
  0.3909574399560432  0.3496565166761342  0.0001096439978341   T   T   T
  0.5165949085607647  0.3553715127754367  0.0014054427176819   T   T   T
  0.6433561464064167  0.3571074435351501  0.0010259406363913   T   T   T
  0.7268266364149267  0.3977648068362934  0.0000191606005407   T   T   T
  0.7691210376931917  0.3554554936844639  0.9997175758075250   T   T   T
  0.8531955102585596  0.3964919768438460  0.9992844058975359   T   T   T
  0.8953192340324077  0.3546858877949589  0.9993775307311344   T   T   T
  0.9789229324409181  0.3957468441598732  0.9992902352648604   T   T   T
  0.0214023916210010  0.4790460687560236  0.9992450992233954   T   T   T
  0.1051641863008535  0.5202438480624686  0.9995504584492676   T   T   T
  0.1469571666918805  0.4783588959248689  0.9995812819283121   T   T   T
  0.2301714682009469  0.5184831094634609  0.0001768889458346   T   T   T
  0.2718058528438440  0.4767532262484303  0.0006536417466275   T   T   T
  0.3555501279949697  0.5159787464124673  0.0047121276914413   T   T   T
  0.6454323595974496  0.4838336841927882  0.0032097107025339   T   T   T
  0.7290554753385347  0.5229745887329985  0.9986922440961482   T   T   T
  0.7707338366436413  0.4812350116934801  0.9986739613704816   T   T   T
  0.8539299621828286  0.5213677555707121  0.9982993257913053   T   T   T
  0.8957447673365849  0.4795063380788717  0.9988302383454443   T   T   T
  0.9795155687071662  0.5207156714765808  0.9989479738785990   T   T   T
  0.0219883808852164  0.6040091567276964  0.9989129403894105   T   T   T
  0.1055942103128154  0.6450637683389493  0.9994941644466936   T   T   T
  0.1477183063861086  0.6032616516495534  0.9998711465527232   T   T   T
  0.2317978308670500  0.6442929146224565  0.0005591942217549   T   T   T
  0.2740943850787171  0.6019896138907858  0.0011097050902431   T   T   T
  0.3575626036677481  0.6426606485024910  0.0018897805594284   T   T   T
  0.4843388159200647  0.6444552896123956  0.0011671857365194   T   T   T
  0.6099943700752445  0.6501079860158165  0.9975391135024363   T   T   T
  0.6514259305425738  0.6095351845256791  0.0004360091239770   T   T   T
  0.7722437130261286  0.6061939422793278  0.9975455809941430   T   T   T
  0.8552164613702282  0.6468067224416311  0.9973485139894576   T   T   T
  0.8964679868295247  0.6046831629067443  0.9979114019996482   T   T   T
  0.9800851566370975  0.6458849911063078  0.9983739710054511   T   T   T
  0.0219808586585703  0.7289337356484802  0.9984593188667765   T   T   T
  0.1054562495578290  0.7702513247054680  0.9991292829443038   T   T   T
  0.1473631472806189  0.7284076728749777  0.9996401540231560   T   T   T
  0.2307003670457745  0.7696159866352021  0.0000898102787674   T   T   T
  0.2728249025170879  0.7274880204037620  0.0005390991449997   T   T   T
  0.3560237653019818  0.7684424040730582  0.0004913524297479   T   T   T
  0.3983150976333771  0.7260957310260319  0.0008290363119314   T   T   T
  0.4818693761352947  0.7700143837243040  0.9995476742666198   T   T   T
  0.5234588462185397  0.7282189805019483  0.9989566529714349   T   T   T
  0.6066659533244447  0.7714296479710967  0.9968062944726576   T   T   T
  0.7317260645946573  0.7723636609753194  0.9958021880358364   T   T   T
  0.7731428502647969  0.7312655337633351  0.9961369629318428   T   T   T
  0.8558361352088094  0.7720865586901827  0.9969942065019486   T   T   T
  0.8974706213769511  0.7301100936809403  0.9972841774023230   T   T   T
  0.9802509873574912  0.7708773251536499  0.9979696266497774   T   T   T
  0.0219756078776390  0.8542621762499876  0.9983444647858061   T   T   T
  0.1050277749055488  0.8953770946107884  0.9988314208248031   T   T   T
  0.1469211415881325  0.8534652349868899  0.9991709830700789   T   T   T
  0.2301415627663467  0.8949279990871191  0.9994656923571057   T   T   T
  0.2719504770753415  0.8529891638175979  0.9998697070382347   T   T   T
  0.3552734381365849  0.8947030189154344  0.9998016625586235   T   T   T
  0.3970597178895495  0.8525649465620941  0.9999123219814763   T   T   T
  0.4800911480099959  0.8951144029781525  0.9993739661979104   T   T   T
  0.5219562685981622  0.8532629006851880  0.9989203430838874   T   T   T
  0.6051831724238564  0.8957809886047374  0.9981690023071854   T   T   T
  0.6472361143341662  0.8543959632329086  0.9972050891431039   T   T   T
  0.7305929020837129  0.8967404288136619  0.9972009971671764   T   T   T
  0.7725928309274634  0.8551266565892813  0.9969176851976408   T   T   T
  0.8554531133921338  0.8964534444519253  0.9977492982877627   T   T   T
  0.8971274144913247  0.8549230274529438  0.9976459348051367   T   T   T
  0.9803440480614731  0.8959674776448007  0.9982726838444759   T   T   T
  0.4988104711670003  0.4619853562783446  0.1257120720902867   T   T   T
  0.4972084458571534  0.5337236679577460  0.1283594133100800   T   T   T
  0.5668113919035107  0.6083608887470456  0.1533452675162952   T   T   T
  0.3510993782170772  0.2668791962791955  0.9971815291005366   T   T   T
  0.2672042037235836  0.3505307118114652  0.9989448169681103   T   T   T
  0.4716494627645847  0.3902719368203169  0.0018830179301920   T   T   T
  0.6003565289018938  0.4005726555037983  0.0026243437720103   T   T   T
  0.3895405667640703  0.4704036155143431  0.0115542847751438   T   T   T
  0.6114817813160839  0.5295266712587191  0.0100933799003284   T   T   T
  0.4006281510882004  0.5992524989602722  0.0033837219607557   T   T   T
  0.5293500252430950  0.6095021847285413  0.0011278014746373   T   T   T
  0.7337141539835021  0.6492096825244548  0.9962737757588375   T   T   T
  0.6498049573034292  0.7328640525787714  0.9945944789991629   T   T   T
  0.5006576066663055  0.5001192105575425  0.0254670201664324   T   T   T
 
  0.00000000E+00  0.00000000E+00  0.00000000E+00
  0.00000000E+00  0.00000000E+00  0.00000000E+00
  0.00000000E+00  0.00000000E+00  0.00000000E+00
  0.00000000E+00  0.00000000E+00  0.00000000E+00
  0.00000000E+00  0.00000000E+00  0.00000000E+00
  0.00000000E+00  0.00000000E+00  0.00000000E+00
  0.00000000E+00  0.00000000E+00  0.00000000E+00
  0.00000000E+00  0.00000000E+00  0.00000000E+00
  0.00000000E+00  0.00000000E+00  0.00000000E+00
  0.00000000E+00  0.00000000E+00  0.00000000E+00
  0.00000000E+00  0.00000000E+00  0.00000000E+00
  0.00000000E+00  0.00000000E+00  0.00000000E+00
  0.00000000E+00  0.00000000E+00  0.00000000E+00
  0.00000000E+00  0.00000000E+00  0.00000000E+00
  0.00000000E+00  0.00000000E+00  0.00000000E+00
  0.00000000E+00  0.00000000E+00  0.00000000E+00
  0.00000000E+00  0.00000000E+00  0.00000000E+00
  0.00000000E+00  0.00000000E+00  0.00000000E+00
  0.00000000E+00  0.00000000E+00  0.00000000E+00
  0.00000000E+00  0.00000000E+00  0.00000000E+00
  0.00000000E+00  0.00000000E+00  0.00000000E+00
  0.00000000E+00  0.00000000E+00  0.00000000E+00
  0.00000000E+00  0.00000000E+00  0.00000000E+00
  0.00000000E+00  0.00000000E+00  0.00000000E+00
  0.00000000E+00  0.00000000E+00  0.00000000E+00
  0.00000000E+00  0.00000000E+00  0.00000000E+00
  0.00000000E+00  0.00000000E+00  0.00000000E+00
  0.00000000E+00  0.00000000E+00  0.00000000E+00
  0.00000000E+00  0.00000000E+00  0.00000000E+00
  0.00000000E+00  0.00000000E+00  0.00000000E+00
  0.00000000E+00  0.00000000E+00  0.00000000E+00
  0.00000000E+00  0.00000000E+00  0.00000000E+00
  0.00000000E+00  0.00000000E+00  0.00000000E+00
  0.00000000E+00  0.00000000E+00  0.00000000E+00
  0.00000000E+00  0.00000000E+00  0.00000000E+00
  0.00000000E+00  0.00000000E+00  0.00000000E+00
  0.00000000E+00  0.00000000E+00  0.00000000E+00
  0.00000000E+00  0.00000000E+00  0.00000000E+00
  0.00000000E+00  0.00000000E+00  0.00000000E+00
  0.00000000E+00  0.00000000E+00  0.00000000E+00
  0.00000000E+00  0.00000000E+00  0.00000000E+00
  0.00000000E+00  0.00000000E+00  0.00000000E+00
  0.00000000E+00  0.00000000E+00  0.00000000E+00
  0.00000000E+00  0.00000000E+00  0.00000000E+00
  0.00000000E+00  0.00000000E+00  0.00000000E+00
  0.00000000E+00  0.00000000E+00  0.00000000E+00
  0.00000000E+00  0.00000000E+00  0.00000000E+00
  0.00000000E+00  0.00000000E+00  0.00000000E+00
  0.00000000E+00  0.00000000E+00  0.00000000E+00
  0.00000000E+00  0.00000000E+00  0.00000000E+00
  0.00000000E+00  0.00000000E+00  0.00000000E+00
  0.00000000E+00  0.00000000E+00  0.00000000E+00
  0.00000000E+00  0.00000000E+00  0.00000000E+00
  0.00000000E+00  0.00000000E+00  0.00000000E+00
  0.00000000E+00  0.00000000E+00  0.00000000E+00
  0.00000000E+00  0.00000000E+00  0.00000000E+00
  0.00000000E+00  0.00000000E+00  0.00000000E+00
  0.00000000E+00  0.00000000E+00  0.00000000E+00
  0.00000000E+00  0.00000000E+00  0.00000000E+00
  0.00000000E+00  0.00000000E+00  0.00000000E+00
  0.00000000E+00  0.00000000E+00  0.00000000E+00
  0.00000000E+00  0.00000000E+00  0.00000000E+00
  0.00000000E+00  0.00000000E+00  0.00000000E+00
  0.00000000E+00  0.00000000E+00  0.00000000E+00
  0.00000000E+00  0.00000000E+00  0.00000000E+00
  0.00000000E+00  0.00000000E+00  0.00000000E+00
  0.00000000E+00  0.00000000E+00  0.00000000E+00
  0.00000000E+00  0.00000000E+00  0.00000000E+00
  0.00000000E+00  0.00000000E+00  0.00000000E+00
  0.00000000E+00  0.00000000E+00  0.00000000E+00
  0.00000000E+00  0.00000000E+00  0.00000000E+00
  0.00000000E+00  0.00000000E+00  0.00000000E+00
  0.00000000E+00  0.00000000E+00  0.00000000E+00
  0.00000000E+00  0.00000000E+00  0.00000000E+00
  0.00000000E+00  0.00000000E+00  0.00000000E+00
  0.00000000E+00  0.00000000E+00  0.00000000E+00
  0.00000000E+00  0.00000000E+00  0.00000000E+00
  0.00000000E+00  0.00000000E+00  0.00000000E+00
  0.00000000E+00  0.00000000E+00  0.00000000E+00
  0.00000000E+00  0.00000000E+00  0.00000000E+00
  0.00000000E+00  0.00000000E+00  0.00000000E+00
  0.00000000E+00  0.00000000E+00  0.00000000E+00
  0.00000000E+00  0.00000000E+00  0.00000000E+00
  0.00000000E+00  0.00000000E+00  0.00000000E+00
  0.00000000E+00  0.00000000E+00  0.00000000E+00
  0.00000000E+00  0.00000000E+00  0.00000000E+00
  0.00000000E+00  0.00000000E+00  0.00000000E+00
  0.00000000E+00  0.00000000E+00  0.00000000E+00
  0.00000000E+00  0.00000000E+00  0.00000000E+00
  0.00000000E+00  0.00000000E+00  0.00000000E+00
  0.00000000E+00  0.00000000E+00  0.00000000E+00
  0.00000000E+00  0.00000000E+00  0.00000000E+00
  0.00000000E+00  0.00000000E+00  0.00000000E+00
  0.00000000E+00  0.00000000E+00  0.00000000E+00
  0.00000000E+00  0.00000000E+00  0.00000000E+00
  0.00000000E+00  0.00000000E+00  0.00000000E+00
  0.00000000E+00  0.00000000E+00  0.00000000E+00
  0.00000000E+00  0.00000000E+00  0.00000000E+00
  0.00000000E+00  0.00000000E+00  0.00000000E+00
  0.00000000E+00  0.00000000E+00  0.00000000E+00
  0.00000000E+00  0.00000000E+00  0.00000000E+00
  0.00000000E+00  0.00000000E+00  0.00000000E+00
  0.00000000E+00  0.00000000E+00  0.00000000E+00
  0.00000000E+00  0.00000000E+00  0.00000000E+00
  0.00000000E+00  0.00000000E+00  0.00000000E+00
  0.00000000E+00  0.00000000E+00  0.00000000E+00
  0.00000000E+00  0.00000000E+00  0.00000000E+00
  0.00000000E+00  0.00000000E+00  0.00000000E+00
  0.00000000E+00  0.00000000E+00  0.00000000E+00
  0.00000000E+00  0.00000000E+00  0.00000000E+00
  0.00000000E+00  0.00000000E+00  0.00000000E+00
  0.00000000E+00  0.00000000E+00  0.00000000E+00
  0.00000000E+00  0.00000000E+00  0.00000000E+00
  0.00000000E+00  0.00000000E+00  0.00000000E+00
  0.00000000E+00  0.00000000E+00  0.00000000E+00
  0.00000000E+00  0.00000000E+00  0.00000000E+00
  0.00000000E+00  0.00000000E+00  0.00000000E+00
  0.00000000E+00  0.00000000E+00  0.00000000E+00
  0.00000000E+00  0.00000000E+00  0.00000000E+00
  0.00000000E+00  0.00000000E+00  0.00000000E+00
  0.00000000E+00  0.00000000E+00  0.00000000E+00
  0.00000000E+00  0.00000000E+00  0.00000000E+00
  0.00000000E+00  0.00000000E+00  0.00000000E+00
  0.00000000E+00  0.00000000E+00  0.00000000E+00
  0.00000000E+00  0.00000000E+00  0.00000000E+00
  0.00000000E+00  0.00000000E+00  0.00000000E+00
  0.00000000E+00  0.00000000E+00  0.00000000E+00
  0.00000000E+00  0.00000000E+00  0.00000000E+00
  0.00000000E+00  0.00000000E+00  0.00000000E+00
  0.00000000E+00  0.00000000E+00  0.00000000E+00
  0.00000000E+00  0.00000000E+00  0.00000000E+00
  0.00000000E+00  0.00000000E+00  0.00000000E+00
  0.00000000E+00  0.00000000E+00  0.00000000E+00
  0.00000000E+00  0.00000000E+00  0.00000000E+00
  0.00000000E+00  0.00000000E+00  0.00000000E+00
  0.00000000E+00  0.00000000E+00  0.00000000E+00
