RuN9                                    
   1.00000000000000     
    17.0990259999999985   -9.8721239999999995    0.0000000000000000
     0.0000000000000000   19.7442530000000005    0.0000000000000000
     0.0000000000000000    0.0000000000000000   20.0000000000000000
   H    C    N    Ru
     6   120     9     1
Selective dynamics
Direct
  0.4472219472640707  0.4104569057927288  0.1376638081012308   T   T   T
  0.5548683040156960  0.4639292223915180  0.1413663178599706   T   T   T
  0.4465400424285308  0.5357376546132884  0.1387755065146171   T   T   T
  0.6281347035087421  0.6142503203796722  0.1382866470590333   T   T   T
  0.5727935394940995  0.6126471468230343  0.2086920421285795   T   T   T
  0.5747299782219336  0.6652588605666401  0.1359735418430388   T   T   T
  0.0209963556428296  0.9789266963788168 -0.0000859802649674   T   T   T
  0.1040536310788833  0.0199361082296556 -0.0004304816696640   T   T   T
  0.1457158812478250  0.9783167456150438 -0.0003407926174022   T   T   T
  0.2290686817932985  0.0200216047281629 -0.0014374053058252   T   T   T
  0.2709725059843537  0.9782030338147709 -0.0009475776008527   T   T   T
  0.3540189456928169  0.0200055776808630 -0.0016288958260553   T   T   T
  0.3958823883988790  0.9780573628390080 -0.0010842651114643   T   T   T
  0.4791312536620281  0.0204606018947334 -0.0013413196269548   T   T   T
  0.5208256605350655  0.9785128130267254 -0.0013109490092450   T   T   T
  0.6040731579012477  0.0210200418631016 -0.0012432910533994   T   T   T
  0.6458730781823111  0.9791162040898019 -0.0016762256824571   T   T   T
  0.7290569108528954  0.0210903480887243 -0.0010323607911429   T   T   T
  0.7709736001441817  0.9796434343549034 -0.0013076752623253   T   T   T
  0.8541366426248995  0.0211368970361439 -0.0003928186480207   T   T   T
  0.8962744613860644  0.9797824180980939 -0.0005728039989389   T   T   T
  0.9791695063615762  0.0207215405097366 -0.0001260247395902   T   T   T
  0.0201765988499458  0.1038161389355571 -0.0002626546689292   T   T   T
  0.1032814177961681  0.1446802773785052 -0.0013476246679595   T   T   T
  0.1449768826624413  0.1031668276610927 -0.0015520959826927   T   T   T
  0.2278677552613053  0.1445150673441168 -0.0033689620902490   T   T   T
  0.2698159534880300  0.1028768628501967 -0.0032462581469739   T   T   T
  0.3531981004119560  0.1451839859815978 -0.0040594482060067   T   T   T
  0.3952019887835936  0.1036921075383240 -0.0028039224526972   T   T   T
  0.4784207047342228  0.1460992131594326 -0.0023448013734785   T   T   T
  0.5202328885633883  0.1042643433472960 -0.0015103401132334   T   T   T
  0.6033040938028212  0.1469157313378737 -0.0009076143533719   T   T   T
  0.6450886399312834  0.1048137109784484 -0.0006838456999155   T   T   T
  0.7283904119094917  0.1465200398921520 -0.0000529013139915   T   T   T
  0.7703002113184567  0.1046694160207007 -0.0000596170222493   T   T   T
  0.8534028887051961  0.1460425816875647  0.0004344327858216   T   T   T
  0.8953023244698359  0.1042678552009947  0.0002978078154867   T   T   T
  0.9784068634680152  0.1453392628752275  0.0000620117954217   T   T   T
  0.0200694535085647  0.2286694124688128 -0.0004274300193190   T   T   T
  0.1028344555243034  0.2693908620042386 -0.0017329863253312   T   T   T
  0.1445732977237492  0.2276066499860858 -0.0023976150279642   T   T   T
  0.2272260104502970  0.2683344700207181 -0.0042070384350805   T   T   T
  0.2685729306379860  0.2272565170719880 -0.0051829529485433   T   T   T
  0.3936739483100470  0.2281083021927087 -0.0051998831893644   T   T   T
  0.4769527676489270  0.2710535971192443 -0.0034887077771504   T   T   T
  0.5185036229057380  0.2293596408400390 -0.0022607885941810   T   T   T
  0.6020000451850643  0.2734494020504068 -0.0006987748756827   T   T   T
  0.6443100734478142  0.2310491828325584 -0.0004709153987812   T   T   T
  0.7274387358026071  0.2719544392379111  0.0000706103647701   T   T   T
  0.7695635263030535  0.2298798186401978  0.0002685566681842   T   T   T
  0.8529500696255142  0.2711382315672784  0.0002596883613467   T   T   T
  0.8949023313761880  0.2294255262207890  0.0004020736437599   T   T   T
  0.9782686432062443  0.2705897204257848 -0.0001736794164500   T   T   T
  0.0201224476738019  0.3536342464214270 -0.0008672158636593   T   T   T
  0.1037328703823988  0.3947890500171614 -0.0016728904705428   T   T   T
  0.1450317478147435  0.3527063951428933 -0.0023320670581642   T   T   T
  0.2279241874484755  0.3932135842152138 -0.0027803243596122   T   T   T
  0.3490222861526761  0.3900023486089468  0.0006402526265584   T   T   T
  0.3904149408721523  0.3494824643223209 -0.0032375823151990   T   T   T
  0.5157681680186360  0.3547619903987811 -0.0014293652043612   T   T   T
  0.6425581310366808  0.3568853297910481  0.0001848383298607   T   T   T
  0.7260708991463486  0.3975277599007300 -0.0002854897709662   T   T   T
  0.7683567630376970  0.3552081196223335 -0.0001600335221699   T   T   T
  0.8524516853158054  0.3962645087666257 -0.0005535562177466   T   T   T
  0.8946120944709647  0.3544809523835631 -0.0002862652027454   T   T   T
  0.9782217673514172  0.3954986274347539 -0.0007639578095898   T   T   T
  0.0206915497535793  0.4787575322568564 -0.0010401159847331   T   T   T
  0.1044057645807993  0.5198833969278792 -0.0009751318122358   T   T   T
  0.1461013455140873  0.4779631685642526 -0.0015032615036239   T   T   T
  0.2293668879302986  0.5181107500201798 -0.0011008901736502   T   T   T
  0.2708205690474624  0.4763193326495817 -0.0014312492027234   T   T   T
  0.3547177485431553  0.5156634762638325  0.0037267063689626   T   T   T
  0.6448840276572282  0.4837620249208227  0.0027257973097031   T   T   T
  0.7282694364194607  0.5227863012398120 -0.0012592150359835   T   T   T
  0.7700804693540136  0.4809585436439661 -0.0014822741187650   T   T   T
  0.8532846573559361  0.5211558714081049 -0.0017536707537882   T   T   T
  0.8950807312944832  0.4792318585472327 -0.0012076622133815   T   T   T
  0.9788427612737763  0.5204267483287375 -0.0011270574063137   T   T   T
  0.0213780454240865  0.6036486737145501 -0.0008414340045011   T   T   T
  0.1049464079205517  0.6447130146591156 -0.0001114289320583   T   T   T
  0.1469089679265681  0.6028700414177883 -0.0002265148534315   T   T   T
  0.2309146502354404  0.6438871689937105  0.0004888472734789   T   T   T
  0.2729325896729912  0.6015444036053795  0.0005399813741371   T   T   T
  0.3564767930685994  0.6420109105584262  0.0013544425593832   T   T   T
  0.4835523129671943  0.6437771690773537  0.0008980090456151   T   T   T
  0.5284929534518458  0.6062522656131033  0.0044721322482760   T   T   T
  0.6519385128161505  0.6091646464934126  0.0016297956506520   T   T   T
  0.7719352026182278  0.6057863566739990 -0.0022720796779898   T   T   T
  0.8546894703047689  0.6465330321614090 -0.0022833814842882   T   T   T
  0.8960400174310138  0.6043372826822166 -0.0018251280949548   T   T   T
  0.9795532585280892  0.6455410928554575 -0.0010517919659700   T   T   T
  0.0216263229264377  0.7286126251714138 -0.0003276821370999   T   T   T
  0.1050139576119747  0.7699528709095145  0.0004888825852398   T   T   T
  0.1467863358071310  0.7280575407848964  0.0005770060130003   T   T   T
  0.2300960178186550  0.7692957991615493  0.0007666480267004   T   T   T
  0.2720121912463502  0.7270756859685987  0.0007801801687751   T   T   T
  0.3551294701091363  0.7679566121636952  0.0002500386773705   T   T   T
  0.3971287168966978  0.7254240699112630  0.0001517614753122   T   T   T
  0.4807865949214150  0.7691343972403133 -0.0016234240404766   T   T   T
  0.5216270208839932  0.7272456857921911 -0.0023317355932224   T   T   T
  0.6058562916795938  0.7700709338651581 -0.0036656355986247   T   T   T
  0.6498018980177267  0.7319857411754679 -0.0041130530628602   T   T   T
  0.7319979190334566  0.7724275886767225 -0.0039085611686209   T   T   T
  0.7741400963179368  0.7317093572159655 -0.0035305891516650   T   T   T
  0.8558381036807098  0.7717256995561090 -0.0023959934894310   T   T   T
  0.8974495667556688  0.7297734068151901 -0.0018748074947395   T   T   T
  0.9799790630221825  0.7705350683949495 -0.0006267887876580   T   T   T
  0.0216242629944787  0.8540352318979886  0.0000279167812362   T   T   T
  0.1045029709534080  0.8950946613029139  0.0003693030084820   T   T   T
  0.1464760067832682  0.8532002834728847  0.0005552119228058   T   T   T
  0.2296484289855788  0.8946717377556049  0.0001647198448029   T   T   T
  0.2714147221632327  0.8526518478791796  0.0003103348460615   T   T   T
  0.3548070776721656  0.8943056904471655 -0.0003228485575722   T   T   T
  0.3964073578060849  0.8520835224352802 -0.0004060589764450   T   T   T
  0.4796999420731712  0.8945958188586864 -0.0011983318500185   T   T   T
  0.5214456225745332  0.8528417711584610 -0.0019570679967471   T   T   T
  0.6048505859648525  0.8954618603752069 -0.0025351058199256   T   T   T
  0.6468519683296166  0.8540930416617537 -0.0033238960810787   T   T   T
  0.7299354611870225  0.8962113080251959 -0.0026526359934210   T   T   T
  0.7725582753799670  0.8554576326705328 -0.0028647389518116   T   T   T
  0.8554126846133975  0.8967202436166127 -0.0016512663020283   T   T   T
  0.8969359316130155  0.8550593458871190 -0.0014888463575298   T   T   T
  0.9799051004974711  0.8958240557156334 -0.0003471873020833   T   T   T
  0.5016903008674830  0.4650021001593566  0.1274119460619674   T   T   T
  0.5022509975723918  0.5380966843043433  0.1282140288620762   T   T   T
  0.5732652892448833  0.6117079731795932  0.1534960910781945   T   T   T
  0.3506283382013844  0.2667916891913975 -0.0074873394250746   T   T   T
  0.2666257520983707  0.3504666629901980 -0.0042392476204933   T   T   T
  0.4708769341150441  0.3892685171566987 -0.0002943230609478   T   T   T
  0.5993644722429691  0.4003484236745948  0.0013688429842210   T   T   T
  0.3889045550180827  0.4705804703694726  0.0104731678794824   T   T   T
  0.6113261324655975  0.5309737049504983  0.0096706285144676   T   T   T
  0.3987693984269584  0.5988330262378726  0.0031717800728190   T   T   T
  0.6111222328904948  0.6500796104710796 -0.0010614538199671   T   T   T
  0.7329876245623534  0.6496118634717323 -0.0034566265424291   T   T   T
  0.4993450739277376  0.4996649638938482  0.0260666689721149   T   T   T
 
  0.00000000E+00  0.00000000E+00  0.00000000E+00
  0.00000000E+00  0.00000000E+00  0.00000000E+00
  0.00000000E+00  0.00000000E+00  0.00000000E+00
  0.00000000E+00  0.00000000E+00  0.00000000E+00
  0.00000000E+00  0.00000000E+00  0.00000000E+00
  0.00000000E+00  0.00000000E+00  0.00000000E+00
  0.00000000E+00  0.00000000E+00  0.00000000E+00
  0.00000000E+00  0.00000000E+00  0.00000000E+00
  0.00000000E+00  0.00000000E+00  0.00000000E+00
  0.00000000E+00  0.00000000E+00  0.00000000E+00
  0.00000000E+00  0.00000000E+00  0.00000000E+00
  0.00000000E+00  0.00000000E+00  0.00000000E+00
  0.00000000E+00  0.00000000E+00  0.00000000E+00
  0.00000000E+00  0.00000000E+00  0.00000000E+00
  0.00000000E+00  0.00000000E+00  0.00000000E+00
  0.00000000E+00  0.00000000E+00  0.00000000E+00
  0.00000000E+00  0.00000000E+00  0.00000000E+00
  0.00000000E+00  0.00000000E+00  0.00000000E+00
  0.00000000E+00  0.00000000E+00  0.00000000E+00
  0.00000000E+00  0.00000000E+00  0.00000000E+00
  0.00000000E+00  0.00000000E+00  0.00000000E+00
  0.00000000E+00  0.00000000E+00  0.00000000E+00
  0.00000000E+00  0.00000000E+00  0.00000000E+00
  0.00000000E+00  0.00000000E+00  0.00000000E+00
  0.00000000E+00  0.00000000E+00  0.00000000E+00
  0.00000000E+00  0.00000000E+00  0.00000000E+00
  0.00000000E+00  0.00000000E+00  0.00000000E+00
  0.00000000E+00  0.00000000E+00  0.00000000E+00
  0.00000000E+00  0.00000000E+00  0.00000000E+00
  0.00000000E+00  0.00000000E+00  0.00000000E+00
  0.00000000E+00  0.00000000E+00  0.00000000E+00
  0.00000000E+00  0.00000000E+00  0.00000000E+00
  0.00000000E+00  0.00000000E+00  0.00000000E+00
  0.00000000E+00  0.00000000E+00  0.00000000E+00
  0.00000000E+00  0.00000000E+00  0.00000000E+00
  0.00000000E+00  0.00000000E+00  0.00000000E+00
  0.00000000E+00  0.00000000E+00  0.00000000E+00
  0.00000000E+00  0.00000000E+00  0.00000000E+00
  0.00000000E+00  0.00000000E+00  0.00000000E+00
  0.00000000E+00  0.00000000E+00  0.00000000E+00
  0.00000000E+00  0.00000000E+00  0.00000000E+00
  0.00000000E+00  0.00000000E+00  0.00000000E+00
  0.00000000E+00  0.00000000E+00  0.00000000E+00
  0.00000000E+00  0.00000000E+00  0.00000000E+00
  0.00000000E+00  0.00000000E+00  0.00000000E+00
  0.00000000E+00  0.00000000E+00  0.00000000E+00
  0.00000000E+00  0.00000000E+00  0.00000000E+00
  0.00000000E+00  0.00000000E+00  0.00000000E+00
  0.00000000E+00  0.00000000E+00  0.00000000E+00
  0.00000000E+00  0.00000000E+00  0.00000000E+00
  0.00000000E+00  0.00000000E+00  0.00000000E+00
  0.00000000E+00  0.00000000E+00  0.00000000E+00
  0.00000000E+00  0.00000000E+00  0.00000000E+00
  0.00000000E+00  0.00000000E+00  0.00000000E+00
  0.00000000E+00  0.00000000E+00  0.00000000E+00
  0.00000000E+00  0.00000000E+00  0.00000000E+00
  0.00000000E+00  0.00000000E+00  0.00000000E+00
  0.00000000E+00  0.00000000E+00  0.00000000E+00
  0.00000000E+00  0.00000000E+00  0.00000000E+00
  0.00000000E+00  0.00000000E+00  0.00000000E+00
  0.00000000E+00  0.00000000E+00  0.00000000E+00
  0.00000000E+00  0.00000000E+00  0.00000000E+00
  0.00000000E+00  0.00000000E+00  0.00000000E+00
  0.00000000E+00  0.00000000E+00  0.00000000E+00
  0.00000000E+00  0.00000000E+00  0.00000000E+00
  0.00000000E+00  0.00000000E+00  0.00000000E+00
  0.00000000E+00  0.00000000E+00  0.00000000E+00
  0.00000000E+00  0.00000000E+00  0.00000000E+00
  0.00000000E+00  0.00000000E+00  0.00000000E+00
  0.00000000E+00  0.00000000E+00  0.00000000E+00
  0.00000000E+00  0.00000000E+00  0.00000000E+00
  0.00000000E+00  0.00000000E+00  0.00000000E+00
  0.00000000E+00  0.00000000E+00  0.00000000E+00
  0.00000000E+00  0.00000000E+00  0.00000000E+00
  0.00000000E+00  0.00000000E+00  0.00000000E+00
  0.00000000E+00  0.00000000E+00  0.00000000E+00
  0.00000000E+00  0.00000000E+00  0.00000000E+00
  0.00000000E+00  0.00000000E+00  0.00000000E+00
  0.00000000E+00  0.00000000E+00  0.00000000E+00
  0.00000000E+00  0.00000000E+00  0.00000000E+00
  0.00000000E+00  0.00000000E+00  0.00000000E+00
  0.00000000E+00  0.00000000E+00  0.00000000E+00
  0.00000000E+00  0.00000000E+00  0.00000000E+00
  0.00000000E+00  0.00000000E+00  0.00000000E+00
  0.00000000E+00  0.00000000E+00  0.00000000E+00
  0.00000000E+00  0.00000000E+00  0.00000000E+00
  0.00000000E+00  0.00000000E+00  0.00000000E+00
  0.00000000E+00  0.00000000E+00  0.00000000E+00
  0.00000000E+00  0.00000000E+00  0.00000000E+00
  0.00000000E+00  0.00000000E+00  0.00000000E+00
  0.00000000E+00  0.00000000E+00  0.00000000E+00
  0.00000000E+00  0.00000000E+00  0.00000000E+00
  0.00000000E+00  0.00000000E+00  0.00000000E+00
  0.00000000E+00  0.00000000E+00  0.00000000E+00
  0.00000000E+00  0.00000000E+00  0.00000000E+00
  0.00000000E+00  0.00000000E+00  0.00000000E+00
  0.00000000E+00  0.00000000E+00  0.00000000E+00
  0.00000000E+00  0.00000000E+00  0.00000000E+00
  0.00000000E+00  0.00000000E+00  0.00000000E+00
  0.00000000E+00  0.00000000E+00  0.00000000E+00
  0.00000000E+00  0.00000000E+00  0.00000000E+00
  0.00000000E+00  0.00000000E+00  0.00000000E+00
  0.00000000E+00  0.00000000E+00  0.00000000E+00
  0.00000000E+00  0.00000000E+00  0.00000000E+00
  0.00000000E+00  0.00000000E+00  0.00000000E+00
  0.00000000E+00  0.00000000E+00  0.00000000E+00
  0.00000000E+00  0.00000000E+00  0.00000000E+00
  0.00000000E+00  0.00000000E+00  0.00000000E+00
  0.00000000E+00  0.00000000E+00  0.00000000E+00
  0.00000000E+00  0.00000000E+00  0.00000000E+00
  0.00000000E+00  0.00000000E+00  0.00000000E+00
  0.00000000E+00  0.00000000E+00  0.00000000E+00
  0.00000000E+00  0.00000000E+00  0.00000000E+00
  0.00000000E+00  0.00000000E+00  0.00000000E+00
  0.00000000E+00  0.00000000E+00  0.00000000E+00
  0.00000000E+00  0.00000000E+00  0.00000000E+00
  0.00000000E+00  0.00000000E+00  0.00000000E+00
  0.00000000E+00  0.00000000E+00  0.00000000E+00
  0.00000000E+00  0.00000000E+00  0.00000000E+00
  0.00000000E+00  0.00000000E+00  0.00000000E+00
  0.00000000E+00  0.00000000E+00  0.00000000E+00
  0.00000000E+00  0.00000000E+00  0.00000000E+00
  0.00000000E+00  0.00000000E+00  0.00000000E+00
  0.00000000E+00  0.00000000E+00  0.00000000E+00
  0.00000000E+00  0.00000000E+00  0.00000000E+00
  0.00000000E+00  0.00000000E+00  0.00000000E+00
  0.00000000E+00  0.00000000E+00  0.00000000E+00
  0.00000000E+00  0.00000000E+00  0.00000000E+00
  0.00000000E+00  0.00000000E+00  0.00000000E+00
  0.00000000E+00  0.00000000E+00  0.00000000E+00
  0.00000000E+00  0.00000000E+00  0.00000000E+00
  0.00000000E+00  0.00000000E+00  0.00000000E+00
  0.00000000E+00  0.00000000E+00  0.00000000E+00
  0.00000000E+00  0.00000000E+00  0.00000000E+00
  0.00000000E+00  0.00000000E+00  0.00000000E+00
  0.00000000E+00  0.00000000E+00  0.00000000E+00
