RuN4                                    
   1.00000000000000     
    17.0990259999999985   -9.8721239999999995    0.0000000000000000
     0.0000000000000000   19.7442530000000005    0.0000000000000000
     0.0000000000000000    0.0000000000000000   20.0000000000000000
   H    C    Ru
     6   129     1
Selective dynamics
Direct
  0.4675537748825582  0.3809225497546399  0.1494993868484791   T   T   T
  0.5751626708897469  0.4459870038585650  0.1438391352430460   T   T   T
  0.4503313503171379  0.4929214679606226  0.1777298217065277   T   T   T
  0.6324123596890745  0.5912416217759016  0.1626233962825177   T   T   T
  0.5804020485863699  0.5905557410900614  0.2357108639832576   T   T   T
  0.5691486289877071  0.6317870841908697  0.1607622180775046   T   T   T
  0.0204081444322379  0.9807603351157483  0.9896479077785029   T   T   T
  0.1034717152324441  0.0218862582578024  0.9916054133553730   T   T   T
  0.1453045609609194  0.9802792975014215  0.9925698919747518   T   T   T
  0.2285480201925264  0.0217274531964719  0.9950267663216790   T   T   T
  0.2703738057882214  0.9801767651298749  0.9958925410221411   T   T   T
  0.3536049122890417  0.0219214578671507  0.9977778629726364   T   T   T
  0.3953783042981507  0.9803386865603769  0.9974442422421284   T   T   T
  0.4786437686439179  0.0224902810283138  0.9980311394655823   T   T   T
  0.5203075376986817  0.9807637368951503  0.9961777742192988   T   T   T
  0.6035956622000808  0.0228833226562972  0.9955415098954359   T   T   T
  0.6453166312505310  0.9812797594987867  0.9927861639346870   T   T   T
  0.7285726191281054  0.0230210098603330  0.9920124010639430   T   T   T
  0.7703806494077566  0.9814242922205292  0.9896450162954804   T   T   T
  0.8536883855297002  0.0229596593690404  0.9897129182405948   T   T   T
  0.8955451010823440  0.9813686387376460  0.9884985654786785   T   T   T
  0.9786501356982441  0.0225387387553375  0.9895612103251528   T   T   T
  0.0198411846870312  0.1056325099760359  0.9916152775703875   T   T   T
  0.1029302554764892  0.1467242262420864  0.9934482577104778   T   T   T
  0.1445840578554145  0.1049367463394578  0.9934613664024502   T   T   T
  0.2275768923572080  0.1460270053719325  0.9961864026100913   T   T   T
  0.2697926479282263  0.1048077506906191  0.9969475896825021   T   T   T
  0.3529975662003054  0.1464872412531722 -0.0000601110977402   T   T   T
  0.3949355083963192  0.1052969446574990 -0.0001511913426138   T   T   T
  0.4782191378066417  0.1478234227599630  0.0015037976872231   T   T   T
  0.5199831337598602  0.1061477678998742  0.0000995781464970   T   T   T
  0.6032376699699891  0.1481081492856681  0.0003425695951387   T   T   T
  0.6449719520681995  0.1063563258592271  0.9976975039475801   T   T   T
  0.7282634622850206  0.1480266628610834  0.9971939566187180   T   T   T
  0.7700028193392353  0.1063595654384349  0.9943151378515366   T   T   T
  0.8532927212654189  0.1478609801490565  0.9941852263695912   T   T   T
  0.8950247779530918  0.1061483089370309  0.9919965082184133   T   T   T
  0.9782480242336864  0.1474708618075160  0.9927922991773593   T   T   T
  0.0197904467323060  0.2307275462619555  0.9952979666145266   T   T   T
  0.1029611516572674  0.2720060219751770  0.9966671272955515   T   T   T
  0.1441993899271070  0.2297836230787831  0.9960724759930194   T   T   T
  0.2269987951485356  0.2706346367241488  0.9988082374515019   T   T   T
  0.2684488517371783  0.2287874248330074  0.9988535493018338   T   T   T
  0.3513497433214714  0.2697636279750588  0.0026072089504149   T   T   T
  0.3941246062119884  0.2296478679812900  0.0030103250626682   T   T   T
  0.4773009709213761  0.2731363496284214  0.0058337248839494   T   T   T
  0.5194237123583277  0.2315576118116277  0.0042195086989200   T   T   T
  0.6026750098111083  0.2734318214231814  0.0050360992031497   T   T   T
  0.6445019043957934  0.2316539941099850  0.0026541037166619   T   T   T
  0.7279426265797128  0.2731557516149099  0.0019426413836481   T   T   T
  0.7696915991949006  0.2314363140496973  0.9993876247530112   T   T   T
  0.8531281394981117  0.2728656272045859  0.9987136360102734   T   T   T
  0.8948219814580433  0.2311253335779527  0.9965612601377772   T   T   T
  0.9781897274668137  0.2725509983445767  0.9967935309204184   T   T   T
  0.0199423946788509  0.3558053514999034  0.9984076801244107   T   T   T
  0.1034048193121493  0.3971888173782830  0.9989952514170651   T   T   T
  0.1447487519784123  0.3553340061749136  0.9988867499563325   T   T   T
  0.2280317437890403  0.3965868494883329  0.0013698557870708   T   T   T
  0.2682620098365344  0.3537547282559363  0.0019877610246254   T   T   T
  0.3505411559886522  0.3941991348321105  0.0075062491511937   T   T   T
  0.3917978646319299  0.3520158732591375  0.0082410270999637   T   T   T
  0.5179008411763881  0.3574696988344182  0.0109240508742143   T   T   T
  0.6019336653939370  0.3990533946513536  0.0099480522595381   T   T   T
  0.6437850477997275  0.3572987646345793  0.0066620550819492   T   T   T
  0.7276289372737935  0.3984209966044193  0.0042328244896923   T   T   T
  0.7694278536230366  0.3566051228916449  0.0026292739074465   T   T   T
  0.8530000498020240  0.3978828925763955  0.0009960220897520   T   T   T
  0.8947945636291421  0.3561566926714613  0.9997811993539191   T   T   T
  0.9782994590774288  0.3975432287231237  0.9992085586125904   T   T   T
  0.0204186829097126  0.4808224903637464  0.9991291280599521   T   T   T
  0.1040756687106308  0.5221679587783197  0.9989254617905787   T   T   T
  0.1458736985452266  0.4804615140804389  0.9995319196024257   T   T   T
  0.2296404799915113  0.5217355436324811  0.0005173535405822   T   T   T
  0.2714355137424700  0.4798324464120105  0.0028526144885637   T   T   T
  0.3558886627216921  0.5208332314375648  0.0065912455270709   T   T   T
  0.6434781640012023  0.4831281605697529  0.0076429832778452   T   T   T
  0.7278654591297105  0.5237255063045932  0.0019990466649633   T   T   T
  0.7695008439492796  0.4816507272819554  0.0021617075514800   T   T   T
  0.8532280265635865  0.5228510739848181  0.9996583089966797   T   T   T
  0.8949734671594599  0.4811278655595081  0.0000239536853178   T   T   T
  0.9786563984254431  0.5224793584782582  0.9988500967435098   T   T   T
  0.0207493157361274  0.6057200514605395  0.9972462985263532   T   T   T
  0.1042136082407858  0.6471119111358943  0.9968932382277931   T   T   T
  0.1459685318797569  0.6054107290336603  0.9980440590014847   T   T   T
  0.2295042752262267  0.6467327473614607  0.9980118191345335   T   T   T
  0.2713145177800427  0.6049906671186444  0.9995820993044994   T   T   T
  0.3550020523063859  0.6461091685784004  0.9994793266285092   T   T   T
  0.3968127471541315  0.6044184259659316  0.0027220119421926   T   T   T
  0.4805628435974314  0.6455293149227852  0.9997572046075960   T   T   T
  0.6064411099981558  0.6504886150154437  0.9960058968501690   T   T   T
  0.6488230277843908  0.6091867228384621  0.9987471847807198   T   T   T
  0.7311629559882368  0.6496462893206074  0.9944283099289681   T   T   T
  0.7711947893508140  0.6067897085826808  0.9970430549006515   T   T   T
  0.8545005499386706  0.6479912918106483  0.9948142079435809   T   T   T
  0.8957161207848123  0.6061116254009308  0.9967656390258575   T   T   T
  0.9791347766555523  0.6474564523736908  0.9957612839618868   T   T   T
  0.0208776431639061  0.7306707742881613  0.9936333141477831   T   T   T
  0.1042256536742179  0.7721037974720700  0.9940745869978125   T   T   T
  0.1458852908228626  0.7303858533740289  0.9956437584707237   T   T   T
  0.2292475566169088  0.7718160068805205  0.9959759421348733   T   T   T
  0.2709617146928891  0.7300944300530408  0.9968264902832331   T   T   T
  0.3543519846038120  0.7715637807252278  0.9962463098328794   T   T   T
  0.3961123925245391  0.7297768405889109  0.9965800067777698   T   T   T
  0.4793664677154088  0.7715879616580046  0.9944372802161379   T   T   T
  0.5212803166368171  0.7298281711736990  0.9943634579623837   T   T   T
  0.6044210760085855  0.7731117534736637  0.9910219400025320   T   T   T
  0.6471866851457452  0.7327927357700786  0.9909999853860848   T   T   T
  0.7303937802236876  0.7741108334399074  0.9890593559679912   T   T   T
  0.7722011921889885  0.7326018788752192  0.9902013174271521   T   T   T
  0.8549949705667804  0.7734816910987526  0.9894134194223625   T   T   T
  0.8961910349224247  0.7312087615974980  0.9915505900621048   T   T   T
  0.9793277174435651  0.7724940999126193  0.9915649254666032   T   T   T
  0.0208073327788909  0.8557833955092855  0.9904699975145440   T   T   T
  0.1039824572805306  0.8970841597067837  0.9919225510279592   T   T   T
  0.1457041725917416  0.8553485624642084  0.9934787325303860   T   T   T
  0.2289529664116715  0.8968502919478497  0.9949614352353092   T   T   T
  0.2706764427756919  0.8551785592954866  0.9957534815604682   T   T   T
  0.3539773340598419  0.8968687882074652  0.9963547346848534   T   T   T
  0.3956829657530753  0.8551271944750009  0.9958505243229643   T   T   T
  0.4789353092166085  0.8971126565391420  0.9950740167656185   T   T   T
  0.5206163420277874  0.8553207691640232  0.9933989192290974   T   T   T
  0.6038972940729854  0.8978093834418943  0.9915866956495140   T   T   T
  0.6457262963090519  0.8564910467533909  0.9896690401602307   T   T   T
  0.7290600983663356  0.8982461139284716  0.9884341825828470   T   T   T
  0.7712985240338255  0.8569480511363580  0.9877161863216177   T   T   T
  0.8544207428492219  0.8982542837750317  0.9876112263655804   T   T   T
  0.8961814623092816  0.8565553623486298  0.9881979766953352   T   T   T
  0.9792560430005121  0.8976706608083750  0.9890696999342717   T   T   T
  0.5173378754996321  0.4401739840195835  0.1476521094084821   T   T   T
  0.5087120979933970  0.5040048346061269  0.1632852528016742   T   T   T
  0.5765978824900838  0.5839840704804899  0.1808015644516940   T   T   T
  0.4728854653690833  0.3954160534334116  0.0177729147549521   T   T   T
  0.3946071597741381  0.4763761953383959  0.0141956883630085   T   T   T
  0.6057959386595567  0.5285156503660566  0.0107854253426264   T   T   T
  0.5245100578682197  0.6063068434453862  0.0031502376296112   T   T   T
  0.5013265601077148  0.5054213867444430  0.0524883239330816   T   T   T
 
  0.00000000E+00  0.00000000E+00  0.00000000E+00
  0.00000000E+00  0.00000000E+00  0.00000000E+00
  0.00000000E+00  0.00000000E+00  0.00000000E+00
  0.00000000E+00  0.00000000E+00  0.00000000E+00
  0.00000000E+00  0.00000000E+00  0.00000000E+00
  0.00000000E+00  0.00000000E+00  0.00000000E+00
  0.00000000E+00  0.00000000E+00  0.00000000E+00
  0.00000000E+00  0.00000000E+00  0.00000000E+00
  0.00000000E+00  0.00000000E+00  0.00000000E+00
  0.00000000E+00  0.00000000E+00  0.00000000E+00
  0.00000000E+00  0.00000000E+00  0.00000000E+00
  0.00000000E+00  0.00000000E+00  0.00000000E+00
  0.00000000E+00  0.00000000E+00  0.00000000E+00
  0.00000000E+00  0.00000000E+00  0.00000000E+00
  0.00000000E+00  0.00000000E+00  0.00000000E+00
  0.00000000E+00  0.00000000E+00  0.00000000E+00
  0.00000000E+00  0.00000000E+00  0.00000000E+00
  0.00000000E+00  0.00000000E+00  0.00000000E+00
  0.00000000E+00  0.00000000E+00  0.00000000E+00
  0.00000000E+00  0.00000000E+00  0.00000000E+00
  0.00000000E+00  0.00000000E+00  0.00000000E+00
  0.00000000E+00  0.00000000E+00  0.00000000E+00
  0.00000000E+00  0.00000000E+00  0.00000000E+00
  0.00000000E+00  0.00000000E+00  0.00000000E+00
  0.00000000E+00  0.00000000E+00  0.00000000E+00
  0.00000000E+00  0.00000000E+00  0.00000000E+00
  0.00000000E+00  0.00000000E+00  0.00000000E+00
  0.00000000E+00  0.00000000E+00  0.00000000E+00
  0.00000000E+00  0.00000000E+00  0.00000000E+00
  0.00000000E+00  0.00000000E+00  0.00000000E+00
  0.00000000E+00  0.00000000E+00  0.00000000E+00
  0.00000000E+00  0.00000000E+00  0.00000000E+00
  0.00000000E+00  0.00000000E+00  0.00000000E+00
  0.00000000E+00  0.00000000E+00  0.00000000E+00
  0.00000000E+00  0.00000000E+00  0.00000000E+00
  0.00000000E+00  0.00000000E+00  0.00000000E+00
  0.00000000E+00  0.00000000E+00  0.00000000E+00
  0.00000000E+00  0.00000000E+00  0.00000000E+00
  0.00000000E+00  0.00000000E+00  0.00000000E+00
  0.00000000E+00  0.00000000E+00  0.00000000E+00
  0.00000000E+00  0.00000000E+00  0.00000000E+00
  0.00000000E+00  0.00000000E+00  0.00000000E+00
  0.00000000E+00  0.00000000E+00  0.00000000E+00
  0.00000000E+00  0.00000000E+00  0.00000000E+00
  0.00000000E+00  0.00000000E+00  0.00000000E+00
  0.00000000E+00  0.00000000E+00  0.00000000E+00
  0.00000000E+00  0.00000000E+00  0.00000000E+00
  0.00000000E+00  0.00000000E+00  0.00000000E+00
  0.00000000E+00  0.00000000E+00  0.00000000E+00
  0.00000000E+00  0.00000000E+00  0.00000000E+00
  0.00000000E+00  0.00000000E+00  0.00000000E+00
  0.00000000E+00  0.00000000E+00  0.00000000E+00
  0.00000000E+00  0.00000000E+00  0.00000000E+00
  0.00000000E+00  0.00000000E+00  0.00000000E+00
  0.00000000E+00  0.00000000E+00  0.00000000E+00
  0.00000000E+00  0.00000000E+00  0.00000000E+00
  0.00000000E+00  0.00000000E+00  0.00000000E+00
  0.00000000E+00  0.00000000E+00  0.00000000E+00
  0.00000000E+00  0.00000000E+00  0.00000000E+00
  0.00000000E+00  0.00000000E+00  0.00000000E+00
  0.00000000E+00  0.00000000E+00  0.00000000E+00
  0.00000000E+00  0.00000000E+00  0.00000000E+00
  0.00000000E+00  0.00000000E+00  0.00000000E+00
  0.00000000E+00  0.00000000E+00  0.00000000E+00
  0.00000000E+00  0.00000000E+00  0.00000000E+00
  0.00000000E+00  0.00000000E+00  0.00000000E+00
  0.00000000E+00  0.00000000E+00  0.00000000E+00
  0.00000000E+00  0.00000000E+00  0.00000000E+00
  0.00000000E+00  0.00000000E+00  0.00000000E+00
  0.00000000E+00  0.00000000E+00  0.00000000E+00
  0.00000000E+00  0.00000000E+00  0.00000000E+00
  0.00000000E+00  0.00000000E+00  0.00000000E+00
  0.00000000E+00  0.00000000E+00  0.00000000E+00
  0.00000000E+00  0.00000000E+00  0.00000000E+00
  0.00000000E+00  0.00000000E+00  0.00000000E+00
  0.00000000E+00  0.00000000E+00  0.00000000E+00
  0.00000000E+00  0.00000000E+00  0.00000000E+00
  0.00000000E+00  0.00000000E+00  0.00000000E+00
  0.00000000E+00  0.00000000E+00  0.00000000E+00
  0.00000000E+00  0.00000000E+00  0.00000000E+00
  0.00000000E+00  0.00000000E+00  0.00000000E+00
  0.00000000E+00  0.00000000E+00  0.00000000E+00
  0.00000000E+00  0.00000000E+00  0.00000000E+00
  0.00000000E+00  0.00000000E+00  0.00000000E+00
  0.00000000E+00  0.00000000E+00  0.00000000E+00
  0.00000000E+00  0.00000000E+00  0.00000000E+00
  0.00000000E+00  0.00000000E+00  0.00000000E+00
  0.00000000E+00  0.00000000E+00  0.00000000E+00
  0.00000000E+00  0.00000000E+00  0.00000000E+00
  0.00000000E+00  0.00000000E+00  0.00000000E+00
  0.00000000E+00  0.00000000E+00  0.00000000E+00
  0.00000000E+00  0.00000000E+00  0.00000000E+00
  0.00000000E+00  0.00000000E+00  0.00000000E+00
  0.00000000E+00  0.00000000E+00  0.00000000E+00
  0.00000000E+00  0.00000000E+00  0.00000000E+00
  0.00000000E+00  0.00000000E+00  0.00000000E+00
  0.00000000E+00  0.00000000E+00  0.00000000E+00
  0.00000000E+00  0.00000000E+00  0.00000000E+00
  0.00000000E+00  0.00000000E+00  0.00000000E+00
  0.00000000E+00  0.00000000E+00  0.00000000E+00
  0.00000000E+00  0.00000000E+00  0.00000000E+00
  0.00000000E+00  0.00000000E+00  0.00000000E+00
  0.00000000E+00  0.00000000E+00  0.00000000E+00
  0.00000000E+00  0.00000000E+00  0.00000000E+00
  0.00000000E+00  0.00000000E+00  0.00000000E+00
  0.00000000E+00  0.00000000E+00  0.00000000E+00
  0.00000000E+00  0.00000000E+00  0.00000000E+00
  0.00000000E+00  0.00000000E+00  0.00000000E+00
  0.00000000E+00  0.00000000E+00  0.00000000E+00
  0.00000000E+00  0.00000000E+00  0.00000000E+00
  0.00000000E+00  0.00000000E+00  0.00000000E+00
  0.00000000E+00  0.00000000E+00  0.00000000E+00
  0.00000000E+00  0.00000000E+00  0.00000000E+00
  0.00000000E+00  0.00000000E+00  0.00000000E+00
  0.00000000E+00  0.00000000E+00  0.00000000E+00
  0.00000000E+00  0.00000000E+00  0.00000000E+00
  0.00000000E+00  0.00000000E+00  0.00000000E+00
  0.00000000E+00  0.00000000E+00  0.00000000E+00
  0.00000000E+00  0.00000000E+00  0.00000000E+00
  0.00000000E+00  0.00000000E+00  0.00000000E+00
  0.00000000E+00  0.00000000E+00  0.00000000E+00
  0.00000000E+00  0.00000000E+00  0.00000000E+00
  0.00000000E+00  0.00000000E+00  0.00000000E+00
  0.00000000E+00  0.00000000E+00  0.00000000E+00
  0.00000000E+00  0.00000000E+00  0.00000000E+00
  0.00000000E+00  0.00000000E+00  0.00000000E+00
  0.00000000E+00  0.00000000E+00  0.00000000E+00
  0.00000000E+00  0.00000000E+00  0.00000000E+00
  0.00000000E+00  0.00000000E+00  0.00000000E+00
  0.00000000E+00  0.00000000E+00  0.00000000E+00
  0.00000000E+00  0.00000000E+00  0.00000000E+00
  0.00000000E+00  0.00000000E+00  0.00000000E+00
  0.00000000E+00  0.00000000E+00  0.00000000E+00
  0.00000000E+00  0.00000000E+00  0.00000000E+00
  0.00000000E+00  0.00000000E+00  0.00000000E+00
  0.00000000E+00  0.00000000E+00  0.00000000E+00
