RuN14                                   
   1.00000000000000     
    17.0990259999999985   -9.8721239999999995    0.0000000000000000
     0.0000000000000000   19.7442530000000005    0.0000000000000000
     0.0000000000000000    0.0000000000000000   20.0000000000000000
   H    C    N    Ru
     6   115    14     1
Selective dynamics
Direct
  0.4359005592647376  0.4076980856205912  0.1381957627201478   T   T   T
  0.5431319185909828  0.4539548972222623  0.1436777596193069   T   T   T
  0.4457137552848584  0.5376186994941379  0.1393467840635292   T   T   T
  0.6257811544225729  0.6044176469774245  0.1432591499662234   T   T   T
  0.5708417553584539  0.6114699919925157  0.2106534311449288   T   T   T
  0.5793998877446654  0.6617754901008259  0.1348945478069792   T   T   T
  0.0212835039548876  0.9790111983743844  0.9977071345732580   T   T   T
  0.1045133670466344  0.0203818892356371  0.9977830056093262   T   T   T
  0.1463271659621259  0.9788824899369126  0.9979977280374229   T   T   T
  0.2298437280037952  0.0208917147797767  0.9982285220517408   T   T   T
  0.2713360678374319  0.9786483347572394  0.9990755768452053   T   T   T
  0.3548003188119355  0.0207792758935629  0.9996834152450805   T   T   T
  0.3963663035982058  0.9785690784570797  0.0001397662679715   T   T   T
  0.4795816394771560  0.0210655100378532  0.0002662915165643   T   T   T
  0.5211940304524881  0.9787828886240350  0.0002077228018813   T   T   T
  0.6044125733936684  0.0213003796727870  0.9999188386438904   T   T   T
  0.6459733217145910  0.9790934411184604  0.9993264751180447   T   T   T
  0.7294138118633199  0.0212038641198215  0.9987954394293699   T   T   T
  0.7708809201658324  0.9789370326646840  0.9977887138073686   T   T   T
  0.8543891522838590  0.0209343098203389  0.9979297103511915   T   T   T
  0.8961841407222256  0.9794032459517121  0.9975335228188081   T   T   T
  0.9794014104925883  0.0207547279431211  0.9978458436467981   T   T   T
  0.0206721252420413  0.1039411597812482  0.9981017646635284   T   T   T
  0.1041138408490348  0.1453676159635173  0.9977473976893423   T   T   T
  0.1458607420670668  0.1038135731546843  0.9975596275515445   T   T   T
  0.2288891168365435  0.1453839526527648  0.9970776442774439   T   T   T
  0.2708590653564227  0.1041244630240074  0.9976808832649773   T   T   T
  0.3548751126098935  0.1467322696980850  0.9985153092013954   T   T   T
  0.3958563253380783  0.1040657239333242  0.9996425006888370   T   T   T
  0.4789635408693371  0.1471033929207099  0.0001031675535197   T   T   T
  0.5207810259908953  0.1048749753101443  0.0002747509019387   T   T   T
  0.6039032854903319  0.1474116110646415  0.0003278599252441   T   T   T
  0.6456901583439842  0.1050847849954492  0.0000356754168067   T   T   T
  0.7288230058417036  0.1467027621355998  0.9998309838415346   T   T   T
  0.7706165353180672  0.1044885908340584  0.9992511551374725   T   T   T
  0.8540368586139740  0.1461265306935256  0.9990707447506424   T   T   T
  0.8957426979774595  0.1043639833734084  0.9985383661614522   T   T   T
  0.9791532703219912  0.1457403332557968  0.9984633999959872   T   T   T
  0.0210926115928339  0.2292359209682470  0.9987489607464558   T   T   T
  0.1043865086997426  0.2703383880518964  0.9984327218619603   T   T   T
  0.1455983700799771  0.2283241011159857  0.9976851541987301   T   T   T
  0.2287246713039933  0.2694245384525460  0.9968379827781298   T   T   T
  0.2700015435767816  0.2285479769027920  0.9961529040977491   T   T   T
  0.3953572992258149  0.2290504726919620  0.9979809455272100   T   T   T
  0.5193997756070993  0.2299706372760773  0.0003318374284233   T   T   T
  0.6021568075215181  0.2738940676254852  0.0008357935951205   T   T   T
  0.6444855359295297  0.2310883865643624  0.0005707334079707   T   T   T
  0.7279149048336879  0.2723962664357045  0.0004554311354786   T   T   T
  0.7700026153019482  0.2302347283100977  0.0000684681407435   T   T   T
  0.8535266168720591  0.2714308886270251  0.9998279607027138   T   T   T
  0.8956067814390751  0.2295333077073096  0.9994138413653045   T   T   T
  0.9789494034900003  0.2707817673830006  0.9992517858402475   T   T   T
  0.0210095896045790  0.3542248990705076  0.9995231261562035   T   T   T
  0.1043542274182595  0.3952642065099055  0.9995116353134109   T   T   T
  0.1467141068656986  0.3541860250477968  0.9990047142348337   T   T   T
  0.2293208660304391  0.3947446125234377  0.9991142828791797   T   T   T
  0.3506833502420667  0.3914153036941682  0.0028576900924130   T   T   T
  0.3921107340938753  0.3509899140133367  0.9982203008164634   T   T   T
  0.5168138712448973  0.3555735606117233 -0.0002943442087480   T   T   T
  0.6435262255282984  0.3569318965613357  0.0012358453576008   T   T   T
  0.7265347448795758  0.3982241651512471  0.0004101458015126   T   T   T
  0.7692689757485563  0.3558874587367277  0.0003355625090209   T   T   T
  0.8529341378571527  0.3964536651897129  0.9998773278373400   T   T   T
  0.8951622353436169  0.3545820738855219  0.9998356244095900   T   T   T
  0.9789155597267402  0.3958540442976141  0.9997016989557762   T   T   T
  0.0214531377551617  0.4790875656252624  0.9997595025090108   T   T   T
  0.1052465976884254  0.5202765447553444  0.9999762440464572   T   T   T
  0.1474309658060171  0.4784522324381488  0.9998639593954464   T   T   T
  0.2302232661442758  0.5188645687414890  0.0002556957096249   T   T   T
  0.3555647695278615  0.5162971841253041  0.0061225218385186   T   T   T
  0.6452800442503595  0.4836614486016140  0.0043371330234376   T   T   T
  0.7705411683602094  0.4810096698700409  0.9990596906621292   T   T   T
  0.8533098730947705  0.5214098593492741  0.9988339975382181   T   T   T
  0.8955014629706149  0.4795824365750137  0.9994222847385303   T   T   T
  0.9792819059264283  0.5207517360667908  0.9995307545130743   T   T   T
  0.0218260165923106  0.6039994180694447  0.9994083018618614   T   T   T
  0.1055772123946735  0.6452806403774274 -0.0001138992280686   T   T   T
  0.1478166116979664  0.6034086467367589  0.0003063712542916   T   T   T
  0.2314780775282059  0.6439797385681864  0.0009197144545417   T   T   T
  0.2742241463485305  0.6016466204096170  0.0012177729034341   T   T   T
  0.3572434356103604  0.6429310270510753  0.0017926506886690   T   T   T
  0.4840129400896996  0.6443770033697533 -0.0006030765149579   T   T   T
  0.6086721533330414  0.6488650244868037  0.9954607408505786   T   T   T
  0.6500199540128638  0.6083645613824540 -0.0008299871977260   T   T   T
  0.7714184804281043  0.6050690699229614  0.9966533736703633   T   T   T
  0.8540098739418281  0.6456298106249366  0.9971023245865950   T   T   T
  0.8964015904938363  0.6045992791491639  0.9983047817177690   T   T   T
  0.9797434714744980  0.6456315679052916  0.9987515000504827   T   T   T
  0.0218089975942882  0.7290611298919817  0.9984594583973230   T   T   T
  0.1051594938607192  0.7703225674334429  0.9990559573964668   T   T   T
  0.1472332142210098  0.7284296179567167 -0.0001718453541502   T   T   T
  0.2307710169379648  0.7696394903845843  0.0003165641271824   T   T   T
  0.2728630123907415  0.7274665307713580  0.0009055999786984   T   T   T
  0.3563053716020873  0.7687658267676427  0.0009732323390395   T   T   T
  0.3986318797901565  0.7259587697895121  0.0011288171182040   T   T   T
  0.4814162038820848  0.7698983525827429  0.0001607591564019   T   T   T
  0.6053847056897945  0.7708076663467540  0.9963804345192157   T   T   T
  0.7307336123253056  0.7712777312297742  0.9935917375732992   T   T   T
  0.7719861883315869  0.7303634249636782  0.9938812271570406   T   T   T
  0.8550915537708079  0.7714605806566652  0.9955679303601052   T   T   T
  0.8963400227514131  0.7294607189697000  0.9965600281396783   T   T   T
  0.9796377516522414  0.7705722684530011  0.9975660682157721   T   T   T
  0.0215695426131712  0.8540615191647610  0.9976534211817502   T   T   T
  0.1049809501507490  0.8954526148143991  0.9981677576009713   T   T   T
  0.1467190592570441  0.8537175850382459  0.9988174193396042   T   T   T
  0.2301526399345175  0.8953741299437912  0.9993287137251944   T   T   T
  0.2719552865432296  0.8531608202665982  0.0000456700270145   T   T   T
  0.3550957144909208  0.8947798884341456  0.0003157360992009   T   T   T
  0.3968845321725851  0.8524528866860414  0.0006106675678636   T   T   T
  0.4800087604023381  0.8949848624317902  0.0003267991457941   T   T   T
  0.5218322441600288  0.8527540047201596  0.9998894312808327   T   T   T
  0.6049309988782986  0.8957981384974686  0.9991112108699551   T   T   T
  0.6458744688690017  0.8531216811748533  0.9973574658327502   T   T   T
  0.7298606010950515  0.8957078543187085  0.9965772471685406   T   T   T
  0.7718094944282771  0.8544057164772446  0.9954882674344919   T   T   T
  0.8548387683640978  0.8959707464829948  0.9965240168102798   T   T   T
  0.8965779658493375  0.8544144240380995  0.9964631521593137   T   T   T
  0.9800195084484573  0.8958296598077297  0.9973424567656636   T   T   T
  0.4928440331529975  0.4599019328570769  0.1288970970677710   T   T   T
  0.4996643877920788  0.5356879128991946  0.1305717601246418   T   T   T
  0.5728295832242758  0.6070802719069770  0.1556952998113202   T   T   T
  0.3529079280892515  0.2684010007221652  0.9943979759559707   T   T   T
  0.4777593705466374  0.2722153719276534 -0.0000017753595959   T   T   T
  0.2682468558301077  0.3522819000662494  0.9972727693419453   T   T   T
  0.4724436674338427  0.3899916123066250 -0.0000038874919308   T   T   T
  0.6007298100741628  0.4001597346232674  0.0019418337820855   T   T   T
  0.2723029557625062  0.4770314439783254  0.0000523636349610   T   T   T
  0.3885336455070028  0.4708172941095100  0.0141531795231832   T   T   T
  0.6122673575424491  0.5293047854692785  0.0121724509472162   T   T   T
  0.7283596979063297  0.5227745411591056  0.9983728181131870   T   T   T
  0.4000099048493526  0.5996739564128482  0.0024339441988823   T   T   T
  0.5283553852963406  0.6097617664417025  0.9990204306390934   T   T   T
  0.7324366724765546  0.6474925955321352  0.9933701528084575   T   T   T
  0.5230404327514920  0.7276291070483420  0.9993060633635418   T   T   T
  0.6477689034472017  0.7313956124741116  0.9918248086981620   T   T   T
  0.5005504288185761  0.5002861083768957  0.0280004555477692   T   T   T
 
  0.00000000E+00  0.00000000E+00  0.00000000E+00
  0.00000000E+00  0.00000000E+00  0.00000000E+00
  0.00000000E+00  0.00000000E+00  0.00000000E+00
  0.00000000E+00  0.00000000E+00  0.00000000E+00
  0.00000000E+00  0.00000000E+00  0.00000000E+00
  0.00000000E+00  0.00000000E+00  0.00000000E+00
  0.00000000E+00  0.00000000E+00  0.00000000E+00
  0.00000000E+00  0.00000000E+00  0.00000000E+00
  0.00000000E+00  0.00000000E+00  0.00000000E+00
  0.00000000E+00  0.00000000E+00  0.00000000E+00
  0.00000000E+00  0.00000000E+00  0.00000000E+00
  0.00000000E+00  0.00000000E+00  0.00000000E+00
  0.00000000E+00  0.00000000E+00  0.00000000E+00
  0.00000000E+00  0.00000000E+00  0.00000000E+00
  0.00000000E+00  0.00000000E+00  0.00000000E+00
  0.00000000E+00  0.00000000E+00  0.00000000E+00
  0.00000000E+00  0.00000000E+00  0.00000000E+00
  0.00000000E+00  0.00000000E+00  0.00000000E+00
  0.00000000E+00  0.00000000E+00  0.00000000E+00
  0.00000000E+00  0.00000000E+00  0.00000000E+00
  0.00000000E+00  0.00000000E+00  0.00000000E+00
  0.00000000E+00  0.00000000E+00  0.00000000E+00
  0.00000000E+00  0.00000000E+00  0.00000000E+00
  0.00000000E+00  0.00000000E+00  0.00000000E+00
  0.00000000E+00  0.00000000E+00  0.00000000E+00
  0.00000000E+00  0.00000000E+00  0.00000000E+00
  0.00000000E+00  0.00000000E+00  0.00000000E+00
  0.00000000E+00  0.00000000E+00  0.00000000E+00
  0.00000000E+00  0.00000000E+00  0.00000000E+00
  0.00000000E+00  0.00000000E+00  0.00000000E+00
  0.00000000E+00  0.00000000E+00  0.00000000E+00
  0.00000000E+00  0.00000000E+00  0.00000000E+00
  0.00000000E+00  0.00000000E+00  0.00000000E+00
  0.00000000E+00  0.00000000E+00  0.00000000E+00
  0.00000000E+00  0.00000000E+00  0.00000000E+00
  0.00000000E+00  0.00000000E+00  0.00000000E+00
  0.00000000E+00  0.00000000E+00  0.00000000E+00
  0.00000000E+00  0.00000000E+00  0.00000000E+00
  0.00000000E+00  0.00000000E+00  0.00000000E+00
  0.00000000E+00  0.00000000E+00  0.00000000E+00
  0.00000000E+00  0.00000000E+00  0.00000000E+00
  0.00000000E+00  0.00000000E+00  0.00000000E+00
  0.00000000E+00  0.00000000E+00  0.00000000E+00
  0.00000000E+00  0.00000000E+00  0.00000000E+00
  0.00000000E+00  0.00000000E+00  0.00000000E+00
  0.00000000E+00  0.00000000E+00  0.00000000E+00
  0.00000000E+00  0.00000000E+00  0.00000000E+00
  0.00000000E+00  0.00000000E+00  0.00000000E+00
  0.00000000E+00  0.00000000E+00  0.00000000E+00
  0.00000000E+00  0.00000000E+00  0.00000000E+00
  0.00000000E+00  0.00000000E+00  0.00000000E+00
  0.00000000E+00  0.00000000E+00  0.00000000E+00
  0.00000000E+00  0.00000000E+00  0.00000000E+00
  0.00000000E+00  0.00000000E+00  0.00000000E+00
  0.00000000E+00  0.00000000E+00  0.00000000E+00
  0.00000000E+00  0.00000000E+00  0.00000000E+00
  0.00000000E+00  0.00000000E+00  0.00000000E+00
  0.00000000E+00  0.00000000E+00  0.00000000E+00
  0.00000000E+00  0.00000000E+00  0.00000000E+00
  0.00000000E+00  0.00000000E+00  0.00000000E+00
  0.00000000E+00  0.00000000E+00  0.00000000E+00
  0.00000000E+00  0.00000000E+00  0.00000000E+00
  0.00000000E+00  0.00000000E+00  0.00000000E+00
  0.00000000E+00  0.00000000E+00  0.00000000E+00
  0.00000000E+00  0.00000000E+00  0.00000000E+00
  0.00000000E+00  0.00000000E+00  0.00000000E+00
  0.00000000E+00  0.00000000E+00  0.00000000E+00
  0.00000000E+00  0.00000000E+00  0.00000000E+00
  0.00000000E+00  0.00000000E+00  0.00000000E+00
  0.00000000E+00  0.00000000E+00  0.00000000E+00
  0.00000000E+00  0.00000000E+00  0.00000000E+00
  0.00000000E+00  0.00000000E+00  0.00000000E+00
  0.00000000E+00  0.00000000E+00  0.00000000E+00
  0.00000000E+00  0.00000000E+00  0.00000000E+00
  0.00000000E+00  0.00000000E+00  0.00000000E+00
  0.00000000E+00  0.00000000E+00  0.00000000E+00
  0.00000000E+00  0.00000000E+00  0.00000000E+00
  0.00000000E+00  0.00000000E+00  0.00000000E+00
  0.00000000E+00  0.00000000E+00  0.00000000E+00
  0.00000000E+00  0.00000000E+00  0.00000000E+00
  0.00000000E+00  0.00000000E+00  0.00000000E+00
  0.00000000E+00  0.00000000E+00  0.00000000E+00
  0.00000000E+00  0.00000000E+00  0.00000000E+00
  0.00000000E+00  0.00000000E+00  0.00000000E+00
  0.00000000E+00  0.00000000E+00  0.00000000E+00
  0.00000000E+00  0.00000000E+00  0.00000000E+00
  0.00000000E+00  0.00000000E+00  0.00000000E+00
  0.00000000E+00  0.00000000E+00  0.00000000E+00
  0.00000000E+00  0.00000000E+00  0.00000000E+00
  0.00000000E+00  0.00000000E+00  0.00000000E+00
  0.00000000E+00  0.00000000E+00  0.00000000E+00
  0.00000000E+00  0.00000000E+00  0.00000000E+00
  0.00000000E+00  0.00000000E+00  0.00000000E+00
  0.00000000E+00  0.00000000E+00  0.00000000E+00
  0.00000000E+00  0.00000000E+00  0.00000000E+00
  0.00000000E+00  0.00000000E+00  0.00000000E+00
  0.00000000E+00  0.00000000E+00  0.00000000E+00
  0.00000000E+00  0.00000000E+00  0.00000000E+00
  0.00000000E+00  0.00000000E+00  0.00000000E+00
  0.00000000E+00  0.00000000E+00  0.00000000E+00
  0.00000000E+00  0.00000000E+00  0.00000000E+00
  0.00000000E+00  0.00000000E+00  0.00000000E+00
  0.00000000E+00  0.00000000E+00  0.00000000E+00
  0.00000000E+00  0.00000000E+00  0.00000000E+00
  0.00000000E+00  0.00000000E+00  0.00000000E+00
  0.00000000E+00  0.00000000E+00  0.00000000E+00
  0.00000000E+00  0.00000000E+00  0.00000000E+00
  0.00000000E+00  0.00000000E+00  0.00000000E+00
  0.00000000E+00  0.00000000E+00  0.00000000E+00
  0.00000000E+00  0.00000000E+00  0.00000000E+00
  0.00000000E+00  0.00000000E+00  0.00000000E+00
  0.00000000E+00  0.00000000E+00  0.00000000E+00
  0.00000000E+00  0.00000000E+00  0.00000000E+00
  0.00000000E+00  0.00000000E+00  0.00000000E+00
  0.00000000E+00  0.00000000E+00  0.00000000E+00
  0.00000000E+00  0.00000000E+00  0.00000000E+00
  0.00000000E+00  0.00000000E+00  0.00000000E+00
  0.00000000E+00  0.00000000E+00  0.00000000E+00
  0.00000000E+00  0.00000000E+00  0.00000000E+00
  0.00000000E+00  0.00000000E+00  0.00000000E+00
  0.00000000E+00  0.00000000E+00  0.00000000E+00
  0.00000000E+00  0.00000000E+00  0.00000000E+00
  0.00000000E+00  0.00000000E+00  0.00000000E+00
  0.00000000E+00  0.00000000E+00  0.00000000E+00
  0.00000000E+00  0.00000000E+00  0.00000000E+00
  0.00000000E+00  0.00000000E+00  0.00000000E+00
  0.00000000E+00  0.00000000E+00  0.00000000E+00
  0.00000000E+00  0.00000000E+00  0.00000000E+00
  0.00000000E+00  0.00000000E+00  0.00000000E+00
  0.00000000E+00  0.00000000E+00  0.00000000E+00
  0.00000000E+00  0.00000000E+00  0.00000000E+00
  0.00000000E+00  0.00000000E+00  0.00000000E+00
  0.00000000E+00  0.00000000E+00  0.00000000E+00
  0.00000000E+00  0.00000000E+00  0.00000000E+00
  0.00000000E+00  0.00000000E+00  0.00000000E+00
  0.00000000E+00  0.00000000E+00  0.00000000E+00
