RuN13-2                                 
   1.00000000000000     
    17.0990259999999985   -9.8721239999999995    0.0000000000000000
     0.0000000000000000   19.7442530000000005    0.0000000000000000
     0.0000000000000000    0.0000000000000000   20.0000000000000000
   H    C    N    Ru
     6   116    13     1
Selective dynamics
Direct
  0.4404632972332790  0.4100453893100563  0.1421545152437307   T   T   T
  0.5478927583112245  0.4600857978636917  0.1472401311918730   T   T   T
  0.4451342761540787  0.5380049281552433  0.1412786871922527   T   T   T
  0.6257886469299144  0.6101276921721651  0.1468876811557317   T   T   T
  0.5680274218960213  0.6104440644837740  0.2149179924721481   T   T   T
  0.5761762257270067  0.6646608147575885  0.1415955637263868   T   T   T
  0.0212623629397221  0.9789739692406937  0.9954214527823374   T   T   T
  0.1044938936308668  0.0203408743925287  0.9951941065076196   T   T   T
  0.1463146072958880  0.9788447217785350  0.9959793029329836   T   T   T
  0.2297863314765633  0.0208337605699362  0.9962243692610893   T   T   T
  0.2712196542361518  0.9785355139858326  0.9976546712216688   T   T   T
  0.3545580412789295  0.0205460023750727  0.9982273137342649   T   T   T
  0.3960809936517421  0.9783584106065808  0.9989035559554678   T   T   T
  0.4793245131736466  0.0208404342758982  0.9988975232712868   T   T   T
  0.5208490666131774  0.9784892153283438  0.9987251640088777   T   T   T
  0.6040845015037717  0.0209127152282429  0.9983237126430317   T   T   T
  0.6456507862207755  0.9787124035979408  0.9976227803117544   T   T   T
  0.7290717094963931  0.0207810481975517  0.9971440879471133   T   T   T
  0.7706474134976234  0.9786794593833469  0.9963921767643171   T   T   T
  0.8541241883385782  0.0206918661939893  0.9961019712337218   T   T   T
  0.8961238032805738  0.9793218619279447  0.9956684637742942   T   T   T
  0.9793413863329691  0.0207016820765280  0.9953504443138519   T   T   T
  0.0205724909167962  0.1038795085174210  0.9951259686156800   T   T   T
  0.1039691107859865  0.1452773466989911  0.9942867991310287   T   T   T
  0.1458120893977869  0.1037692742169459  0.9942726357589374   T   T   T
  0.2287877457676310  0.1453341297163145  0.9938128707690648   T   T   T
  0.2708354313334675  0.1041228062820251  0.9951132837302284   T   T   T
  0.3547475526047875  0.1465457269861203  0.9963848125541970   T   T   T
  0.3956039308232278  0.1039563698303509  0.9979610384910328   T   T   T
  0.4787223358476158  0.1469182794217784  0.9987751751518735   T   T   T
  0.5204741510557559  0.1046363726879653  0.9989922062413905   T   T   T
  0.6035735402181315  0.1471663619144668  0.9991546909154011   T   T   T
  0.6453296931891606  0.1047635006245325  0.9986557241590767   T   T   T
  0.7284519602392673  0.1463533938609702  0.9984633497971735   T   T   T
  0.7702777827566278  0.1041765539497383  0.9976225451228879   T   T   T
  0.8537027712250620  0.1458098090141076  0.9972535951671752   T   T   T
  0.8954592183080565  0.1041103257643771  0.9964262021868702   T   T   T
  0.9789236763249078  0.1455690973910409  0.9958515594127326   T   T   T
  0.0207799453180216  0.2289999690837300  0.9962247817880020   T   T   T
  0.1040789103522272  0.2701292305730976  0.9955280679988423   T   T   T
  0.1453714496788517  0.2282083514799351  0.9941945804894949   T   T   T
  0.2285263538841238  0.2693859847846490  0.9933152451768916   T   T   T
  0.2698935370464878  0.2285349665047467  0.9927308089328980   T   T   T
  0.3953131240419402  0.2290970166719954  0.9959890572696405   T   T   T
  0.5191429736684683  0.2296809980787449  0.9993693094143616   T   T   T
  0.6019248600590740  0.2737636349461817  0.0003822278592360   T   T   T
  0.6441643248501584  0.2308739353928228  0.9997894730969937   T   T   T
  0.7276138785132462  0.2721280094752271  0.9997631235412671   T   T   T
  0.7696596281295981  0.2299359025589261  0.9989969395969821   T   T   T
  0.8531833824545159  0.2711279730384879  0.9986444098381247   T   T   T
  0.8953057086003506  0.2292633139270740  0.9977722251569046   T   T   T
  0.9786003954048083  0.2705048183607340  0.9973593179302866   T   T   T
  0.0206411419252245  0.3539285030786338  0.9980438597287838   T   T   T
  0.1039308819734701  0.3949826714307249  0.9980385943688055   T   T   T
  0.1462986704346685  0.3539166644571169  0.9968249794814783   T   T   T
  0.2288384099233748  0.3944497966266916  0.9972413010975391   T   T   T
  0.3501134800158874  0.3910797795546792  0.0017631142720202   T   T   T
  0.3918041795500160  0.3508270674056276  0.9973488167692465   T   T   T
  0.5167939791440811  0.3552158040393331  0.9994860300540173   T   T   T
  0.6433451628753050  0.3567596542760250  0.0015559310325844   T   T   T
  0.7263888558231848  0.3980249743843235  0.0007982177628323   T   T   T
  0.7689845578346155  0.3555804346855844  0.0000716766849085   T   T   T
  0.8526431596353925  0.3961595332738736  0.9994679215218987   T   T   T
  0.8948221230454357  0.3542748187795797  0.9989743883034764   T   T   T
  0.9785672189160667  0.3955583997606171  0.9987404463325391   T   T   T
  0.0210321535261822  0.4787992558032689  0.9990734458644015   T   T   T
  0.1048214889599735  0.5200171681027668  0.9994250203676963   T   T   T
  0.1468600424198928  0.4781420266925958  0.9991345452520582   T   T   T
  0.2295823630231869  0.5186778843374799 -0.0000051243193086   T   T   T
  0.3548218484592092  0.5162085724075811  0.0066099639289409   T   T   T
  0.6448629436447572  0.4832476672258362  0.0077599606479863   T   T   T
  0.7703562602711761  0.4806886726004827  0.9999952426596627   T   T   T
  0.8530942267094437  0.5211208789602796  0.9992626454681089   T   T   T
  0.8951812990680629  0.4792648839994478  0.9992372081983169   T   T   T
  0.9789643087798000  0.5204733132453713  0.9991146476909203   T   T   T
  0.0215602042238457  0.6037558056146233  0.9991118637743334   T   T   T
  0.1052432778246759  0.6450472398060022  0.9995510175497243   T   T   T
  0.1473480576123854  0.6031335946544284 -0.0000324193682588   T   T   T
  0.2308926883824677  0.6437419006178099  0.0008140090601707   T   T   T
  0.2732797774478070  0.6012833959811579  0.0014634793428468   T   T   T
  0.3562693423845480  0.6424997099953934  0.0027638023343076   T   T   T
  0.4822982667334389  0.6426858510437266  0.0049245290530788   T   T   T
  0.5277723782919819  0.6076523391521916  0.0101069689818094   T   T   T
  0.6100105161820958  0.6490163447884539  0.0033435602188555   T   T   T
  0.6517122110650597  0.6089084281551300  0.0062767203493459   T   T   T
  0.7717463060215526  0.6049886607338421  0.9995984176683612   T   T   T
  0.8543036779539733  0.6455464884569673  0.9984313045312663   T   T   T
  0.8963448977287577  0.6043530683139838  0.9987419896317271   T   T   T
  0.9796267542968600  0.6454309582959588  0.9987206477946819   T   T   T
  0.0216933454705244  0.7288683216774957  0.9983011075703895   T   T   T
  0.1050023033034033  0.7701324046789871  0.9986422981754073   T   T   T
  0.1469984144758754  0.7282033100845020 -0.0005007672754464   T   T   T
  0.2305370592471706  0.7694063485289978 -0.0000370822221434   T   T   T
  0.2725010852217331  0.7272560607071460  0.0007061822345779   T   T   T
  0.3559923113734607  0.7685126239169687  0.0005578632709236   T   T   T
  0.3981974683842492  0.7256502803237389  0.0011645708262908   T   T   T
  0.4810845840133947  0.7694970027806178  0.9995093744592920   T   T   T
  0.6049466162747290  0.7697900315613300  0.9975105843994048   T   T   T
  0.7308854955592450  0.7714168082707592  0.9960822537952656   T   T   T
  0.7722428901412494  0.7302893817972043  0.9968073883392122   T   T   T
  0.8552322770024737  0.7714253039940536  0.9965226077769506   T   T   T
  0.8964427377131798  0.7293665685691566  0.9973681024140149   T   T   T
  0.9796757646487000  0.7705031219217165  0.9974185943786323   T   T   T
  0.0215621502431922  0.8539812746746738  0.9966768839878944   T   T   T
  0.1049435810898865  0.8953740853693859  0.9968605492492030   T   T   T
  0.1465957589351740  0.8535857543762748  0.9979719591582338   T   T   T
  0.2299908858168461  0.8951856127586395  0.9983924782833518   T   T   T
  0.2717478486163864  0.8529812327815689  0.9993938923891191   T   T   T
  0.3548460929464616  0.8945604768121458  0.9993871669642727   T   T   T
  0.3965827011634601  0.8521694097826769  0.9996608357739708   T   T   T
  0.4797018213573786  0.8946845974530135  0.9989759902239299   T   T   T
  0.5214293510829876  0.8524057774368073  0.9985694439314005   T   T   T
  0.6045849610956187  0.8952093424566041  0.9975477373789373   T   T   T
  0.6457195366117496  0.8528446496245400  0.9968009532084351   T   T   T
  0.7295523157436328  0.8952991757614056  0.9960987360870197   T   T   T
  0.7718764130855180  0.8543654277301104  0.9957558395072449   T   T   T
  0.8549229731490191  0.8959866511250478  0.9956445160948868   T   T   T
  0.8966540887156021  0.8544151160235305  0.9958525000919900   T   T   T
  0.9800338305946303  0.8957847119215074  0.9959186829069606   T   T   T
  0.4962139400938918  0.4633389450848305  0.1320503724110685   T   T   T
  0.5001225831472711  0.5381744774309544  0.1324482471210874   T   T   T
  0.5714395585022712  0.6098309641029170  0.1598111311956980   T   T   T
  0.3526838725341757  0.2682412621660532  0.9914876773366885   T   T   T
  0.4776595564999578  0.2721125378387342  0.9988077640039617   T   T   T
  0.2679280745571585  0.3522328507902157  0.9941389908260724   T   T   T
  0.4719190503055883  0.3895735249895293  0.0007927071685022   T   T   T
  0.6005556398187999  0.4003222941265240  0.0032488555427516   T   T   T
  0.2717116802415934  0.4767195315678004 -0.0005307079480808   T   T   T
  0.3881008859604234  0.4706806136613405  0.0143232618029433   T   T   T
  0.6127227182136087  0.5295123193181915  0.0179606866317863   T   T   T
  0.7282233313926659  0.5225193699079732  0.0003397484405974   T   T   T
  0.3982354644227755  0.5993606976487735  0.0052651618363690   T   T   T
  0.7332876594321015  0.6475061087743693  0.9989047760440374   T   T   T
  0.5226831385456870  0.7275054605270997  0.9991871959346375   T   T   T
  0.6481498171152752  0.7315106922832265  0.9966767269599965   T   T   T
  0.4990264220171208  0.4989276864881912  0.0312667442806216   T   T   T
 
  0.00000000E+00  0.00000000E+00  0.00000000E+00
  0.00000000E+00  0.00000000E+00  0.00000000E+00
  0.00000000E+00  0.00000000E+00  0.00000000E+00
  0.00000000E+00  0.00000000E+00  0.00000000E+00
  0.00000000E+00  0.00000000E+00  0.00000000E+00
  0.00000000E+00  0.00000000E+00  0.00000000E+00
  0.00000000E+00  0.00000000E+00  0.00000000E+00
  0.00000000E+00  0.00000000E+00  0.00000000E+00
  0.00000000E+00  0.00000000E+00  0.00000000E+00
  0.00000000E+00  0.00000000E+00  0.00000000E+00
  0.00000000E+00  0.00000000E+00  0.00000000E+00
  0.00000000E+00  0.00000000E+00  0.00000000E+00
  0.00000000E+00  0.00000000E+00  0.00000000E+00
  0.00000000E+00  0.00000000E+00  0.00000000E+00
  0.00000000E+00  0.00000000E+00  0.00000000E+00
  0.00000000E+00  0.00000000E+00  0.00000000E+00
  0.00000000E+00  0.00000000E+00  0.00000000E+00
  0.00000000E+00  0.00000000E+00  0.00000000E+00
  0.00000000E+00  0.00000000E+00  0.00000000E+00
  0.00000000E+00  0.00000000E+00  0.00000000E+00
  0.00000000E+00  0.00000000E+00  0.00000000E+00
  0.00000000E+00  0.00000000E+00  0.00000000E+00
  0.00000000E+00  0.00000000E+00  0.00000000E+00
  0.00000000E+00  0.00000000E+00  0.00000000E+00
  0.00000000E+00  0.00000000E+00  0.00000000E+00
  0.00000000E+00  0.00000000E+00  0.00000000E+00
  0.00000000E+00  0.00000000E+00  0.00000000E+00
  0.00000000E+00  0.00000000E+00  0.00000000E+00
  0.00000000E+00  0.00000000E+00  0.00000000E+00
  0.00000000E+00  0.00000000E+00  0.00000000E+00
  0.00000000E+00  0.00000000E+00  0.00000000E+00
  0.00000000E+00  0.00000000E+00  0.00000000E+00
  0.00000000E+00  0.00000000E+00  0.00000000E+00
  0.00000000E+00  0.00000000E+00  0.00000000E+00
  0.00000000E+00  0.00000000E+00  0.00000000E+00
  0.00000000E+00  0.00000000E+00  0.00000000E+00
  0.00000000E+00  0.00000000E+00  0.00000000E+00
  0.00000000E+00  0.00000000E+00  0.00000000E+00
  0.00000000E+00  0.00000000E+00  0.00000000E+00
  0.00000000E+00  0.00000000E+00  0.00000000E+00
  0.00000000E+00  0.00000000E+00  0.00000000E+00
  0.00000000E+00  0.00000000E+00  0.00000000E+00
  0.00000000E+00  0.00000000E+00  0.00000000E+00
  0.00000000E+00  0.00000000E+00  0.00000000E+00
  0.00000000E+00  0.00000000E+00  0.00000000E+00
  0.00000000E+00  0.00000000E+00  0.00000000E+00
  0.00000000E+00  0.00000000E+00  0.00000000E+00
  0.00000000E+00  0.00000000E+00  0.00000000E+00
  0.00000000E+00  0.00000000E+00  0.00000000E+00
  0.00000000E+00  0.00000000E+00  0.00000000E+00
  0.00000000E+00  0.00000000E+00  0.00000000E+00
  0.00000000E+00  0.00000000E+00  0.00000000E+00
  0.00000000E+00  0.00000000E+00  0.00000000E+00
  0.00000000E+00  0.00000000E+00  0.00000000E+00
  0.00000000E+00  0.00000000E+00  0.00000000E+00
  0.00000000E+00  0.00000000E+00  0.00000000E+00
  0.00000000E+00  0.00000000E+00  0.00000000E+00
  0.00000000E+00  0.00000000E+00  0.00000000E+00
  0.00000000E+00  0.00000000E+00  0.00000000E+00
  0.00000000E+00  0.00000000E+00  0.00000000E+00
  0.00000000E+00  0.00000000E+00  0.00000000E+00
  0.00000000E+00  0.00000000E+00  0.00000000E+00
  0.00000000E+00  0.00000000E+00  0.00000000E+00
  0.00000000E+00  0.00000000E+00  0.00000000E+00
  0.00000000E+00  0.00000000E+00  0.00000000E+00
  0.00000000E+00  0.00000000E+00  0.00000000E+00
  0.00000000E+00  0.00000000E+00  0.00000000E+00
  0.00000000E+00  0.00000000E+00  0.00000000E+00
  0.00000000E+00  0.00000000E+00  0.00000000E+00
  0.00000000E+00  0.00000000E+00  0.00000000E+00
  0.00000000E+00  0.00000000E+00  0.00000000E+00
  0.00000000E+00  0.00000000E+00  0.00000000E+00
  0.00000000E+00  0.00000000E+00  0.00000000E+00
  0.00000000E+00  0.00000000E+00  0.00000000E+00
  0.00000000E+00  0.00000000E+00  0.00000000E+00
  0.00000000E+00  0.00000000E+00  0.00000000E+00
  0.00000000E+00  0.00000000E+00  0.00000000E+00
  0.00000000E+00  0.00000000E+00  0.00000000E+00
  0.00000000E+00  0.00000000E+00  0.00000000E+00
  0.00000000E+00  0.00000000E+00  0.00000000E+00
  0.00000000E+00  0.00000000E+00  0.00000000E+00
  0.00000000E+00  0.00000000E+00  0.00000000E+00
  0.00000000E+00  0.00000000E+00  0.00000000E+00
  0.00000000E+00  0.00000000E+00  0.00000000E+00
  0.00000000E+00  0.00000000E+00  0.00000000E+00
  0.00000000E+00  0.00000000E+00  0.00000000E+00
  0.00000000E+00  0.00000000E+00  0.00000000E+00
  0.00000000E+00  0.00000000E+00  0.00000000E+00
  0.00000000E+00  0.00000000E+00  0.00000000E+00
  0.00000000E+00  0.00000000E+00  0.00000000E+00
  0.00000000E+00  0.00000000E+00  0.00000000E+00
  0.00000000E+00  0.00000000E+00  0.00000000E+00
  0.00000000E+00  0.00000000E+00  0.00000000E+00
  0.00000000E+00  0.00000000E+00  0.00000000E+00
  0.00000000E+00  0.00000000E+00  0.00000000E+00
  0.00000000E+00  0.00000000E+00  0.00000000E+00
  0.00000000E+00  0.00000000E+00  0.00000000E+00
  0.00000000E+00  0.00000000E+00  0.00000000E+00
  0.00000000E+00  0.00000000E+00  0.00000000E+00
  0.00000000E+00  0.00000000E+00  0.00000000E+00
  0.00000000E+00  0.00000000E+00  0.00000000E+00
  0.00000000E+00  0.00000000E+00  0.00000000E+00
  0.00000000E+00  0.00000000E+00  0.00000000E+00
  0.00000000E+00  0.00000000E+00  0.00000000E+00
  0.00000000E+00  0.00000000E+00  0.00000000E+00
  0.00000000E+00  0.00000000E+00  0.00000000E+00
  0.00000000E+00  0.00000000E+00  0.00000000E+00
  0.00000000E+00  0.00000000E+00  0.00000000E+00
  0.00000000E+00  0.00000000E+00  0.00000000E+00
  0.00000000E+00  0.00000000E+00  0.00000000E+00
  0.00000000E+00  0.00000000E+00  0.00000000E+00
  0.00000000E+00  0.00000000E+00  0.00000000E+00
  0.00000000E+00  0.00000000E+00  0.00000000E+00
  0.00000000E+00  0.00000000E+00  0.00000000E+00
  0.00000000E+00  0.00000000E+00  0.00000000E+00
  0.00000000E+00  0.00000000E+00  0.00000000E+00
  0.00000000E+00  0.00000000E+00  0.00000000E+00
  0.00000000E+00  0.00000000E+00  0.00000000E+00
  0.00000000E+00  0.00000000E+00  0.00000000E+00
  0.00000000E+00  0.00000000E+00  0.00000000E+00
  0.00000000E+00  0.00000000E+00  0.00000000E+00
  0.00000000E+00  0.00000000E+00  0.00000000E+00
  0.00000000E+00  0.00000000E+00  0.00000000E+00
  0.00000000E+00  0.00000000E+00  0.00000000E+00
  0.00000000E+00  0.00000000E+00  0.00000000E+00
  0.00000000E+00  0.00000000E+00  0.00000000E+00
  0.00000000E+00  0.00000000E+00  0.00000000E+00
  0.00000000E+00  0.00000000E+00  0.00000000E+00
  0.00000000E+00  0.00000000E+00  0.00000000E+00
  0.00000000E+00  0.00000000E+00  0.00000000E+00
  0.00000000E+00  0.00000000E+00  0.00000000E+00
  0.00000000E+00  0.00000000E+00  0.00000000E+00
  0.00000000E+00  0.00000000E+00  0.00000000E+00
  0.00000000E+00  0.00000000E+00  0.00000000E+00
  0.00000000E+00  0.00000000E+00  0.00000000E+00
  0.00000000E+00  0.00000000E+00  0.00000000E+00
