RuN4                                    
   1.00000000000000     
    17.0990259999999985   -9.8721239999999995    0.0000000000000000
     0.0000000000000000   19.7442530000000005    0.0000000000000000
     0.0000000000000000    0.0000000000000000   20.0000000000000000
   H    C    N    Ru
     6   125     4     1
Selective dynamics
Direct
  0.4497205309890216  0.4072767665076823  0.1430746292501767   T   T   T
  0.5568893403037165  0.4684264378785225  0.1476840548685284   T   T   T
  0.4362488273465458  0.5257452365431186  0.1434300966072794   T   T   T
  0.6184248079650119  0.6176504101093788  0.1468617951292955   T   T   T
  0.5584715868525236  0.6125319718049271  0.2152286941141257   T   T   T
  0.5580830987796823  0.6610475883702522  0.1407220922663360   T   T   T
  0.0215507833377657  0.9788748456092398  0.9883060502484171   T   T   T
  0.1044327392777937  0.0197022049948718  0.9899163481600033   T   T   T
  0.1464001437809426  0.9781348995084604  0.9916431435323273   T   T   T
  0.2295017874038004  0.0194697545586688  0.9940139330215355   T   T   T
  0.2714972626254112  0.9779850070026339  0.9962014029890085   T   T   T
  0.3547457525877249  0.0198524945146307  0.9980359270646940   T   T   T
  0.3965757303645507  0.9782137704255858  0.9991767798530611   T   T   T
  0.4797681051639677  0.0206623643397546  0.9995554510457637   T   T   T
  0.5214723368358034  0.9788607531647814  0.9990863805466214   T   T   T
  0.6046595375594142  0.0212949328435202  0.9981208314076340   T   T   T
  0.6464632020828250  0.9796369258583135  0.9960228194305689   T   T   T
  0.7297080316851939  0.0215086914597648  0.9942589271239596   T   T   T
  0.7716742006481503  0.9800029511818823  0.9913523133564717   T   T   T
  0.8548229218796558  0.0213812475882738  0.9901149158004777   T   T   T
  0.8968087231643950  0.9798298040421523  0.9880826534150422   T   T   T
  0.9797156748563626  0.0206659137433109  0.9884166563710071   T   T   T
  0.0204504486439194  0.1035304797469153  0.9902748872974639   T   T   T
  0.1032786086729852  0.1442643788715650  0.9914035724220707   T   T   T
  0.1451001729178507  0.1025164708287661  0.9911601360015835   T   T   T
  0.2279340573747858  0.1433646555205692  0.9937946839451024   T   T   T
  0.2703566433865193  0.1023914596190563  0.9949680064021041   T   T   T
  0.3535840239801535  0.1442359161656001  0.9978424651554240   T   T   T
  0.3958709906573344  0.1032359627636732  0.9987700740242225   T   T   T
  0.4791052710282162  0.1460816963559590  0.0006982135503860   T   T   T
  0.5209432344344024  0.1043797981910890  0.0003387128779870   T   T   T
  0.6041593200014179  0.1468364174983257  0.0008443592993102   T   T   T
  0.6458921255309125  0.1048730617562747  0.9991924487802807   T   T   T
  0.7291211725095342  0.1465231201129404  0.9985941233975391   T   T   T
  0.7709043547939151  0.1047382737682882  0.9959109771401806   T   T   T
  0.8540954682355419  0.1461527811040216  0.9951371844320190   T   T   T
  0.8958239893632213  0.1043989515580456  0.9922385124090368   T   T   T
  0.9788640106283746  0.1454661214855765  0.9921988339364914   T   T   T
  0.0201322903164964  0.2285451660907981  0.9949141971130305   T   T   T
  0.1030402150294831  0.2694250963960235  0.9959827518756501   T   T   T
  0.1440355731471475  0.2270491241566515  0.9942812364551288   T   T   T
  0.2265493530720319  0.2673348996404968  0.9969405448935387   T   T   T
  0.2681546086354850  0.2258613735269340  0.9966759128185105   T   T   T
  0.3508324413512711  0.2668328829403038  0.0006559245112354   T   T   T
  0.3942250996805803  0.2270931619019742  0.0004978133757030   T   T   T
  0.4775538341397748  0.2708465630757770  0.0037063936900417   T   T   T
  0.5201533515531034  0.2298340587095966  0.0029545302347652   T   T   T
  0.6034016103928261  0.2727187734781961  0.0044181272220412   T   T   T
  0.6453076996088127  0.2305845450432190  0.0026279800926417   T   T   T
  0.7286054936195664  0.2717668851720017  0.0023159015819636   T   T   T
  0.7704187463862869  0.2298678340743717  0.0002427442187865   T   T   T
  0.8537539513314615  0.2711712555004589 -0.0004930459073756   T   T   T
  0.8954696855295864  0.2293268458041726  0.9972615749818748   T   T   T
  0.9786915771019005  0.2705501917570957  0.9971343847351566   T   T   T
  0.0205392032771742  0.3537864631107313  0.9992132526710430   T   T   T
  0.1039036039872585  0.3949109892836591  0.0002465437500381   T   T   T
  0.1448079067906471  0.3525907104667498  0.9993899474454041   T   T   T
  0.2276018371466869  0.3931939006128568  0.0025450942189076   T   T   T
  0.2673625420194807  0.3498846393031274  0.0019623748756080   T   T   T
  0.3487868294308583  0.3900708153754960  0.0086310896799883   T   T   T
  0.3910796209041105  0.3483971891882294  0.0066229296330748   T   T   T
  0.5164991569558885  0.3544577663604233  0.0086974930641955   T   T   T
  0.6013112874675012  0.3993219519376181  0.0099776729107935   T   T   T
  0.6437841890159367  0.3567126335086458  0.0066260429636156   T   T   T
  0.7277821152296892  0.3970578823476146  0.0044893035941388   T   T   T
  0.7698231377470197  0.3550888345401694  0.0028978408548374   T   T   T
  0.8535605254268973  0.3962367082906180  0.0015051933610409   T   T   T
  0.8954247153812683  0.3544253012592432  0.0005014805909507   T   T   T
  0.9789840158898129  0.3956704094184373  0.0002810857598335   T   T   T
  0.0214868288640159  0.4788828755420126  0.0009008310424348   T   T   T
  0.1051958464409851  0.5200506228146557  0.0016836163137643   T   T   T
  0.1467997618078994  0.4781527803077357  0.0021494940948046   T   T   T
  0.2305322218122812  0.5191826419546923  0.0043872912657041   T   T   T
  0.2713663838535260  0.4764806077851151  0.0058398503191952   T   T   T
  0.3548893512851221  0.5152885350371219  0.0115985217269320   T   T   T
  0.6464776612038190  0.4843466537301223  0.0097219972749072   T   T   T
  0.7298959578659707  0.5230410113661301  0.0029012402434533   T   T   T
  0.7707252257572922  0.4803336038719091  0.0024394142273636   T   T   T
  0.8544598224335075  0.5213639498459863  0.0001101719936510   T   T   T
  0.8960661229885482  0.4794707436211899  0.0007475117579611   T   T   T
  0.9797720135106356  0.5206385564911191  0.0003684015294781   T   T   T
  0.0222511279773665  0.6038372824633527  0.9992211702360689   T   T   T
  0.1058152622030401  0.6450768970052579  0.0000388202376736   T   T   T
  0.1476914855923640  0.6032797200677527  0.0018322264659136   T   T   T
  0.2314337755283432  0.6444364069102992  0.0033295647758962   T   T   T
  0.2734931455948249  0.6024753066793986  0.0053653341692115   T   T   T
  0.3575320054412665  0.6428651485590731  0.0067947904552136   T   T   T
  0.4001090638091291  0.6003534272155011  0.0100861046900396   T   T   T
  0.4848439172514941  0.6451509804721315  0.0069210544399091   T   T   T
  0.6101641022432187  0.6510479139434013  0.0018253069887232   T   T   T
  0.6524172071518656  0.6093673734259248  0.0036216568608711   T   T   T
  0.7337281935469790  0.6494502056594124  0.9962655826222441   T   T   T
  0.7735990747355158  0.6062368561221578  0.9980504061429029   T   T   T
  0.8563871532785244  0.6468523075383276  0.9951837883277185   T   T   T
  0.8973296327448363  0.6045841422091633  0.9973595352484564   T   T   T
  0.9807071179149398  0.6457104012549869  0.9970335524861805   T   T   T
  0.0225506541093160  0.7289439373136178  0.9949862757699723   T   T   T
  0.1057642139611918  0.7701594293577991  0.9963301071917130   T   T   T
  0.1474705119031500  0.7283239603087110 -0.0009591297961879   T   T   T
  0.2308134863203054  0.7696302166705743  0.0003189723213647   T   T   T
  0.2726465809140696  0.7277593293535156  0.0024848111210772   T   T   T
  0.3559369553182709  0.7689457842285016  0.0025651363503100   T   T   T
  0.3978750603205358  0.7268250978955691  0.0039277512853646   T   T   T
  0.4810779618716971  0.7696915094253562  0.0013676109515035   T   T   T
  0.5236574290243424  0.7286527328549198  0.0011083597254531   T   T   T
  0.6069321688398309  0.7723250317012746  0.9964034066301495   T   T   T
  0.6503021264494691  0.7325325233753465  0.9952024669691445   T   T   T
  0.7329778697669311  0.7735354224142269  0.9906937805291876   T   T   T
  0.7745727872480144  0.7320238666564842  0.9908081146170638   T   T   T
  0.8571490667880796  0.7723674870944708  0.9890921712125353   T   T   T
  0.8981687357235415  0.7300126101540634  0.9914970174949856   T   T   T
  0.9810875216498953  0.7709274101029269  0.9918998555125388   T   T   T
  0.0223807722169015  0.8540400386269565  0.9902659809233848   T   T   T
  0.1054041944074720  0.8951041683556138  0.9920952964370333   T   T   T
  0.1471345014915923  0.8533489058875416  0.9950441632473188   T   T   T
  0.2303086865090671  0.8947469640089774  0.9967557696069586   T   T   T
  0.2721050149885970  0.8529705470928021 -0.0008866910627156   T   T   T
  0.3553414098720745  0.8946314461930884  0.9997655436146747   T   T   T
  0.3970823015458031  0.8526698771070538  0.0008047239855824   T   T   T
  0.4802970113753322  0.8951431875776656  0.9996723763656842   T   T   T
  0.5221251985294688  0.8534335909045621  0.9990230954402268   T   T   T
  0.6053274794482399  0.8962347225715013  0.9962203555938378   T   T   T
  0.6475617637494363  0.8551911809224905  0.9940784018962302   T   T   T
  0.7308012579041703  0.8970603021697890  0.9909265590409368   T   T   T
  0.7732440378038982  0.8561045814260967  0.9888807584508726   T   T   T
  0.8561363753740987  0.8970017015106962  0.9874045346646373   T   T   T
  0.8979521660095249  0.8552213386561736  0.9874461767960941   T   T   T
  0.9808053328534464  0.8959837395168586  0.9881457390631049   T   T   T
  0.5013631555109584  0.4644282632776912  0.1334821807737895   T   T   T
  0.4946662981302959  0.5335100160108314  0.1350627077173539   T   T   T
  0.5610535771076045  0.6104458907120838  0.1601433985716330   T   T   T
  0.4712124214142014  0.3898645766369855  0.0113946400392544   T   T   T
  0.3898809212709178  0.4699092631324531  0.0173537907313712   T   T   T
  0.6115947321634955  0.5298960764947779  0.0150162513067542   T   T   T
  0.5302497956919690  0.6098561939410618  0.0090790409062379   T   T   T
  0.5009847663702274  0.5002477567967398  0.0333088581271748   T   T   T
 
  0.00000000E+00  0.00000000E+00  0.00000000E+00
  0.00000000E+00  0.00000000E+00  0.00000000E+00
  0.00000000E+00  0.00000000E+00  0.00000000E+00
  0.00000000E+00  0.00000000E+00  0.00000000E+00
  0.00000000E+00  0.00000000E+00  0.00000000E+00
  0.00000000E+00  0.00000000E+00  0.00000000E+00
  0.00000000E+00  0.00000000E+00  0.00000000E+00
  0.00000000E+00  0.00000000E+00  0.00000000E+00
  0.00000000E+00  0.00000000E+00  0.00000000E+00
  0.00000000E+00  0.00000000E+00  0.00000000E+00
  0.00000000E+00  0.00000000E+00  0.00000000E+00
  0.00000000E+00  0.00000000E+00  0.00000000E+00
  0.00000000E+00  0.00000000E+00  0.00000000E+00
  0.00000000E+00  0.00000000E+00  0.00000000E+00
  0.00000000E+00  0.00000000E+00  0.00000000E+00
  0.00000000E+00  0.00000000E+00  0.00000000E+00
  0.00000000E+00  0.00000000E+00  0.00000000E+00
  0.00000000E+00  0.00000000E+00  0.00000000E+00
  0.00000000E+00  0.00000000E+00  0.00000000E+00
  0.00000000E+00  0.00000000E+00  0.00000000E+00
  0.00000000E+00  0.00000000E+00  0.00000000E+00
  0.00000000E+00  0.00000000E+00  0.00000000E+00
  0.00000000E+00  0.00000000E+00  0.00000000E+00
  0.00000000E+00  0.00000000E+00  0.00000000E+00
  0.00000000E+00  0.00000000E+00  0.00000000E+00
  0.00000000E+00  0.00000000E+00  0.00000000E+00
  0.00000000E+00  0.00000000E+00  0.00000000E+00
  0.00000000E+00  0.00000000E+00  0.00000000E+00
  0.00000000E+00  0.00000000E+00  0.00000000E+00
  0.00000000E+00  0.00000000E+00  0.00000000E+00
  0.00000000E+00  0.00000000E+00  0.00000000E+00
  0.00000000E+00  0.00000000E+00  0.00000000E+00
  0.00000000E+00  0.00000000E+00  0.00000000E+00
  0.00000000E+00  0.00000000E+00  0.00000000E+00
  0.00000000E+00  0.00000000E+00  0.00000000E+00
  0.00000000E+00  0.00000000E+00  0.00000000E+00
  0.00000000E+00  0.00000000E+00  0.00000000E+00
  0.00000000E+00  0.00000000E+00  0.00000000E+00
  0.00000000E+00  0.00000000E+00  0.00000000E+00
  0.00000000E+00  0.00000000E+00  0.00000000E+00
  0.00000000E+00  0.00000000E+00  0.00000000E+00
  0.00000000E+00  0.00000000E+00  0.00000000E+00
  0.00000000E+00  0.00000000E+00  0.00000000E+00
  0.00000000E+00  0.00000000E+00  0.00000000E+00
  0.00000000E+00  0.00000000E+00  0.00000000E+00
  0.00000000E+00  0.00000000E+00  0.00000000E+00
  0.00000000E+00  0.00000000E+00  0.00000000E+00
  0.00000000E+00  0.00000000E+00  0.00000000E+00
  0.00000000E+00  0.00000000E+00  0.00000000E+00
  0.00000000E+00  0.00000000E+00  0.00000000E+00
  0.00000000E+00  0.00000000E+00  0.00000000E+00
  0.00000000E+00  0.00000000E+00  0.00000000E+00
  0.00000000E+00  0.00000000E+00  0.00000000E+00
  0.00000000E+00  0.00000000E+00  0.00000000E+00
  0.00000000E+00  0.00000000E+00  0.00000000E+00
  0.00000000E+00  0.00000000E+00  0.00000000E+00
  0.00000000E+00  0.00000000E+00  0.00000000E+00
  0.00000000E+00  0.00000000E+00  0.00000000E+00
  0.00000000E+00  0.00000000E+00  0.00000000E+00
  0.00000000E+00  0.00000000E+00  0.00000000E+00
  0.00000000E+00  0.00000000E+00  0.00000000E+00
  0.00000000E+00  0.00000000E+00  0.00000000E+00
  0.00000000E+00  0.00000000E+00  0.00000000E+00
  0.00000000E+00  0.00000000E+00  0.00000000E+00
  0.00000000E+00  0.00000000E+00  0.00000000E+00
  0.00000000E+00  0.00000000E+00  0.00000000E+00
  0.00000000E+00  0.00000000E+00  0.00000000E+00
  0.00000000E+00  0.00000000E+00  0.00000000E+00
  0.00000000E+00  0.00000000E+00  0.00000000E+00
  0.00000000E+00  0.00000000E+00  0.00000000E+00
  0.00000000E+00  0.00000000E+00  0.00000000E+00
  0.00000000E+00  0.00000000E+00  0.00000000E+00
  0.00000000E+00  0.00000000E+00  0.00000000E+00
  0.00000000E+00  0.00000000E+00  0.00000000E+00
  0.00000000E+00  0.00000000E+00  0.00000000E+00
  0.00000000E+00  0.00000000E+00  0.00000000E+00
  0.00000000E+00  0.00000000E+00  0.00000000E+00
  0.00000000E+00  0.00000000E+00  0.00000000E+00
  0.00000000E+00  0.00000000E+00  0.00000000E+00
  0.00000000E+00  0.00000000E+00  0.00000000E+00
  0.00000000E+00  0.00000000E+00  0.00000000E+00
  0.00000000E+00  0.00000000E+00  0.00000000E+00
  0.00000000E+00  0.00000000E+00  0.00000000E+00
  0.00000000E+00  0.00000000E+00  0.00000000E+00
  0.00000000E+00  0.00000000E+00  0.00000000E+00
  0.00000000E+00  0.00000000E+00  0.00000000E+00
  0.00000000E+00  0.00000000E+00  0.00000000E+00
  0.00000000E+00  0.00000000E+00  0.00000000E+00
  0.00000000E+00  0.00000000E+00  0.00000000E+00
  0.00000000E+00  0.00000000E+00  0.00000000E+00
  0.00000000E+00  0.00000000E+00  0.00000000E+00
  0.00000000E+00  0.00000000E+00  0.00000000E+00
  0.00000000E+00  0.00000000E+00  0.00000000E+00
  0.00000000E+00  0.00000000E+00  0.00000000E+00
  0.00000000E+00  0.00000000E+00  0.00000000E+00
  0.00000000E+00  0.00000000E+00  0.00000000E+00
  0.00000000E+00  0.00000000E+00  0.00000000E+00
  0.00000000E+00  0.00000000E+00  0.00000000E+00
  0.00000000E+00  0.00000000E+00  0.00000000E+00
  0.00000000E+00  0.00000000E+00  0.00000000E+00
  0.00000000E+00  0.00000000E+00  0.00000000E+00
  0.00000000E+00  0.00000000E+00  0.00000000E+00
  0.00000000E+00  0.00000000E+00  0.00000000E+00
  0.00000000E+00  0.00000000E+00  0.00000000E+00
  0.00000000E+00  0.00000000E+00  0.00000000E+00
  0.00000000E+00  0.00000000E+00  0.00000000E+00
  0.00000000E+00  0.00000000E+00  0.00000000E+00
  0.00000000E+00  0.00000000E+00  0.00000000E+00
  0.00000000E+00  0.00000000E+00  0.00000000E+00
  0.00000000E+00  0.00000000E+00  0.00000000E+00
  0.00000000E+00  0.00000000E+00  0.00000000E+00
  0.00000000E+00  0.00000000E+00  0.00000000E+00
  0.00000000E+00  0.00000000E+00  0.00000000E+00
  0.00000000E+00  0.00000000E+00  0.00000000E+00
  0.00000000E+00  0.00000000E+00  0.00000000E+00
  0.00000000E+00  0.00000000E+00  0.00000000E+00
  0.00000000E+00  0.00000000E+00  0.00000000E+00
  0.00000000E+00  0.00000000E+00  0.00000000E+00
  0.00000000E+00  0.00000000E+00  0.00000000E+00
  0.00000000E+00  0.00000000E+00  0.00000000E+00
  0.00000000E+00  0.00000000E+00  0.00000000E+00
  0.00000000E+00  0.00000000E+00  0.00000000E+00
  0.00000000E+00  0.00000000E+00  0.00000000E+00
  0.00000000E+00  0.00000000E+00  0.00000000E+00
  0.00000000E+00  0.00000000E+00  0.00000000E+00
  0.00000000E+00  0.00000000E+00  0.00000000E+00
  0.00000000E+00  0.00000000E+00  0.00000000E+00
  0.00000000E+00  0.00000000E+00  0.00000000E+00
  0.00000000E+00  0.00000000E+00  0.00000000E+00
  0.00000000E+00  0.00000000E+00  0.00000000E+00
  0.00000000E+00  0.00000000E+00  0.00000000E+00
  0.00000000E+00  0.00000000E+00  0.00000000E+00
  0.00000000E+00  0.00000000E+00  0.00000000E+00
  0.00000000E+00  0.00000000E+00  0.00000000E+00
  0.00000000E+00  0.00000000E+00  0.00000000E+00
  0.00000000E+00  0.00000000E+00  0.00000000E+00
