 H  C  N  C  N Ru                       
   1.00000000000000     
    17.0990259999999985   -9.8721239999999995    0.0000000000000000
     0.0000000000000000   19.7442530000000005    0.0000000000000000
     0.0000000000000000    0.0000000000000000   20.0000000000000000
   H    C    N    Ru
     6   127     2     1
Direct
  0.3820637464238590  0.4487033367324938  0.1531930052911357
  0.4672833637650151  0.4399275748050917  0.1770728743549916
  0.4676958243819936  0.5929517015644649  0.1412789348856913
  0.6047525142665597  0.5634062667240513  0.1766346215963735
  0.5721440130415771  0.6121684078378947  0.2310572140406885
  0.6149171768172446  0.6551017930434304  0.1526621857461919
  0.0223556903653496  0.9784991974985029  0.9823690595574273
  0.1053990932474624  0.0194731181866090  0.9832654903099779
  0.1471647904875217  0.9777310473268140  0.9850879313002388
  0.2303277142740414  0.0190349235210362  0.9877425416960828
  0.2722620961232482  0.9775847615484060  0.9907291179754851
  0.3555118727656577  0.0193169494391454  0.9938367847817952
  0.3973539244209858  0.9778654417449388  0.9961214185380829
  0.4806104477425136  0.0202259825216261  0.9977692724081860
  0.5224207043084244  0.9786504596953024  0.9979466665630501
  0.6056921272458243  0.0209945697656950  0.9970538529773378
  0.6475227447561825  0.9794236568254748  0.9949448860015817
  0.7307483407493207  0.0212729295562952  0.9921154332595877
  0.7725892628465286  0.9797192853649134  0.9888012021773221
  0.8558070920519486  0.0211480579703665  0.9860934862934420
  0.8976372490593238  0.9794613933164332  0.9837569209617040
  0.9807083531460148  0.0204716680323272  0.9826959118677999
  0.0219181694115350  0.1036102809526897  0.9841888377707813
  0.1049741317830394  0.1445566333552000  0.9852835071324378
  0.1464906363758124  0.1025315932390068  0.9846390547128159
  0.2294171596322866  0.1434338352066457  0.9878716951659799
  0.2714995317526435  0.1021021605164669  0.9893035943094189
  0.3545885262011330  0.1434538001178177  0.9941005745687101
  0.3968278884837985  0.1026122755858799  0.9955006664665724
  0.4800654673085078  0.1453443603389658  0.9990438477503946
  0.5219361118112782  0.1038492597578725  0.9990386584515776
  0.6051853973768192  0.1462916614053665  0.0000711366774004
  0.6470161824893995  0.1045295344914442  0.9979360102465981
  0.7302905697578399  0.1462196608182570  0.9965785567004343
  0.7721123139838733  0.1045698232753541  0.9930575244811591
  0.8553808364023980  0.1460447544838085  0.9910903207271226
  0.8971539077660692  0.1043541452681635  0.9874717164918834
  0.9803771895861594  0.1455880228012882  0.9866905769327708
  0.0219637929269524  0.2288106272120286  0.9901286309928188
  0.1051453551002291  0.2699046782877760  0.9917817215400632
  0.1462451643188883  0.2275832764962030  0.9893937056642179
  0.2290030738017484  0.2681411760291367  0.9933286606841831
  0.2701802840744073  0.2261098709328836  0.9923542806636761
  0.3527699184509449  0.2662836982307764  0.9988364928943734
  0.3954462578664008  0.2262025899920519  0.9990135895514100
  0.4784834190412801  0.2696210766190826  0.0042703893098640
  0.5211713720773187  0.2289493436862602  0.0026476355488271
  0.6043319776237268  0.2718706544939703  0.0050329526657142
  0.6463413737891520  0.2299692050844041  0.0025052370164661
  0.7296767386341880  0.2712411142665766  0.0017572868222479
  0.7716234275681899  0.2295532772347959  0.9984409440287614
  0.8550158340363555  0.2709126279528263  0.9970645096460761
  0.8969004844346317  0.2292684573652385  0.9935709763618230
  0.9802616788005100  0.2705696725488979  0.9933282669193495
  0.0221232210934574  0.3537400492461857  0.9969273069771964
  0.1056249848616388  0.3949369263473519  0.9988693899314302
  0.1472465734047917  0.3531243244538205  0.9971963589037346
  0.2304347801469300  0.3939555828923975  0.0018510813456634
  0.2707062307454682  0.3508582692707702  0.0006234906774519
  0.3527093851532361  0.3903503919308247  0.0096317428610955
  0.3935146205424579  0.3475142544596552  0.0095067057851297
  0.5169698909718885  0.3528690206836861  0.0126918394145646
  0.6017972485885825  0.3980679900061756  0.0115276796848727
  0.6445441336265870  0.3558881742449945  0.0077124605949973
  0.7285058446177801  0.3963234921848170  0.0052999698148481
  0.7707623435563621  0.3545396389752536  0.0029400469556180
  0.8544964828926350  0.3957377990149836  0.0012541981308342
  0.8966004533908504  0.3541237557672237  0.9990756831260700
  0.9802240407822783  0.3953852295203454  0.9989835735704704
  0.0223872180879142  0.4785813034886617  0.0006259776160592
  0.1061268245510041  0.5198308590335542  0.0019102293311291
  0.1480736075811825  0.4781228192150823  0.0023816234743023
  0.2318429714176724  0.5192482749756380  0.0058998215826468
  0.2738052885310936  0.4772743800384347  0.0075657595754696
  0.3577712182814733  0.5178586211467340  0.0150970181571199
  0.6453114958359092  0.4829424154379265  0.0087637624718651
  0.7293983991649978  0.5218514955915527  0.0033815760403970
  0.7708454178579067  0.4794990451661192  0.0035101668411619
  0.8547230089198713  0.5206399348192199  0.0009389839848919
  0.8966565014684033  0.4789519196641074  0.0010952360404352
  0.9804188763866413  0.5201942228775500  0.0004464394077028
  0.0226532867949934  0.6034125373123053  0.9989907679125303
  0.1061945841618505  0.6447273530352585  0.9994309682342051
  0.1481298512766450  0.6030674151129917  0.0020378180514078
  0.2317237900419679  0.6443366393036821  0.0037758874244541
  0.2737414460998805  0.6025661317127105  0.0069610900525927
  0.3575784578106571  0.6438118181959602  0.0092888593772759
  0.3998084182774415  0.6021740097917326  0.0150039827068474
  0.4842302287919706  0.6453853091170795  0.0138998448176495
  0.6100140966351689  0.6494310267788380  0.0053407372767536
  0.6516261258319662  0.6074478210323478  0.0029803417544813
  0.7333793063524151  0.6479154916372700  0.9961932468533271
  0.7733172849010104  0.6049739321031210  0.9978844593695091
  0.8563783359490026  0.6459010557409518  0.9950116503689898
  0.8974960233647654  0.6038483557681349  0.9975667712175322
  0.9809438074116813  0.6451104712737525  0.9964441375224702
  0.0227366588447350  0.7283172183007834  0.9927716830621948
  0.1060823354692724  0.7696270704425794  0.9930338912027403
  0.1478573360129655  0.7279492833792297  0.9969715304982127
  0.2312715015786229  0.7693547733496189  0.9981119014255577
  0.2731479852533938  0.7276959916251138  0.0018579450258748
  0.3565758327708308  0.7692461729904674  0.0022770683721661
  0.3985757327799885  0.7275868960672343  0.0052551126996693
  0.4818722880769511  0.7699290539247061  0.0025561604491770
  0.5241189129270241  0.7286098709426261  0.0039730393465819
  0.6072673522180482  0.7716972307962672  0.9979261245413166
  0.6500389876036102  0.7313284328593900  0.9962159116939961
  0.7327266775087962  0.7725422013768569  0.9902522606534429
  0.7742639107618768  0.7308653450593243  0.9908427818662903
  0.8569741335137417  0.7714346910542653  0.9878855644093695
  0.8980863666485056  0.7291170508798740  0.9903422974057542
  0.9811947167116133  0.7702002227378352  0.9892512283222045
  0.0226937136927603  0.8533901410735086  0.9857770581041920
  0.1058553939801916  0.8945531926511400  0.9863666084121805
  0.1475871174083508  0.8528497604915328  0.9900326233917879
  0.2308641853318937  0.8942891060664794  0.9917516915358818
  0.2726792565830613  0.8526814082175745  0.9955933902882989
  0.3559719609724216  0.8943998654496291  0.9969467766957856
  0.3978158667542296  0.8527728468337472  0.9994360477665829
  0.4810891351421955  0.8950284422513631  0.9988049095318781
  0.5229797257524114  0.8534900627364180  0.9989886301002078
  0.6062376708475694  0.8960288059288669  0.9959486471557675
  0.6482094288603750  0.8547441060864681  0.9940697246205887
  0.7313921660233944  0.8965945180309647  0.9895092862075252
  0.7735487477577232  0.8553376144172073  0.9873029860431980
  0.8565258024140048  0.8963585459464137  0.9844151927077689
  0.8981801818081135  0.8544724459541923  0.9844916604239943
  0.9811868048799508  0.8953805772023012  0.9834770818132649
  0.4454673005502046  0.4743966138858705  0.1512141180137727
  0.4959054741632147  0.5575272085730720  0.1458842335076818
  0.5761907433753122  0.5992538882351740  0.1779142966376559
  0.5295830019859719  0.6079496510429296  0.0218754291973141
  0.3959743080003502  0.4721862682719495  0.0216844328445360
  0.4724096254382467  0.3878849153621343  0.0206992205642544
  0.6088470104720624  0.5275742282737944  0.0096583347928726
  0.5002772280115929  0.5016360517933143  0.0549290619511621
 
  0.00000000E+00  0.00000000E+00  0.00000000E+00
  0.00000000E+00  0.00000000E+00  0.00000000E+00
  0.00000000E+00  0.00000000E+00  0.00000000E+00
  0.00000000E+00  0.00000000E+00  0.00000000E+00
  0.00000000E+00  0.00000000E+00  0.00000000E+00
  0.00000000E+00  0.00000000E+00  0.00000000E+00
  0.00000000E+00  0.00000000E+00  0.00000000E+00
  0.00000000E+00  0.00000000E+00  0.00000000E+00
  0.00000000E+00  0.00000000E+00  0.00000000E+00
  0.00000000E+00  0.00000000E+00  0.00000000E+00
  0.00000000E+00  0.00000000E+00  0.00000000E+00
  0.00000000E+00  0.00000000E+00  0.00000000E+00
  0.00000000E+00  0.00000000E+00  0.00000000E+00
  0.00000000E+00  0.00000000E+00  0.00000000E+00
  0.00000000E+00  0.00000000E+00  0.00000000E+00
  0.00000000E+00  0.00000000E+00  0.00000000E+00
  0.00000000E+00  0.00000000E+00  0.00000000E+00
  0.00000000E+00  0.00000000E+00  0.00000000E+00
  0.00000000E+00  0.00000000E+00  0.00000000E+00
  0.00000000E+00  0.00000000E+00  0.00000000E+00
  0.00000000E+00  0.00000000E+00  0.00000000E+00
  0.00000000E+00  0.00000000E+00  0.00000000E+00
  0.00000000E+00  0.00000000E+00  0.00000000E+00
  0.00000000E+00  0.00000000E+00  0.00000000E+00
  0.00000000E+00  0.00000000E+00  0.00000000E+00
  0.00000000E+00  0.00000000E+00  0.00000000E+00
  0.00000000E+00  0.00000000E+00  0.00000000E+00
  0.00000000E+00  0.00000000E+00  0.00000000E+00
  0.00000000E+00  0.00000000E+00  0.00000000E+00
  0.00000000E+00  0.00000000E+00  0.00000000E+00
  0.00000000E+00  0.00000000E+00  0.00000000E+00
  0.00000000E+00  0.00000000E+00  0.00000000E+00
  0.00000000E+00  0.00000000E+00  0.00000000E+00
  0.00000000E+00  0.00000000E+00  0.00000000E+00
  0.00000000E+00  0.00000000E+00  0.00000000E+00
  0.00000000E+00  0.00000000E+00  0.00000000E+00
  0.00000000E+00  0.00000000E+00  0.00000000E+00
  0.00000000E+00  0.00000000E+00  0.00000000E+00
  0.00000000E+00  0.00000000E+00  0.00000000E+00
  0.00000000E+00  0.00000000E+00  0.00000000E+00
  0.00000000E+00  0.00000000E+00  0.00000000E+00
  0.00000000E+00  0.00000000E+00  0.00000000E+00
  0.00000000E+00  0.00000000E+00  0.00000000E+00
  0.00000000E+00  0.00000000E+00  0.00000000E+00
  0.00000000E+00  0.00000000E+00  0.00000000E+00
  0.00000000E+00  0.00000000E+00  0.00000000E+00
  0.00000000E+00  0.00000000E+00  0.00000000E+00
  0.00000000E+00  0.00000000E+00  0.00000000E+00
  0.00000000E+00  0.00000000E+00  0.00000000E+00
  0.00000000E+00  0.00000000E+00  0.00000000E+00
  0.00000000E+00  0.00000000E+00  0.00000000E+00
  0.00000000E+00  0.00000000E+00  0.00000000E+00
  0.00000000E+00  0.00000000E+00  0.00000000E+00
  0.00000000E+00  0.00000000E+00  0.00000000E+00
  0.00000000E+00  0.00000000E+00  0.00000000E+00
  0.00000000E+00  0.00000000E+00  0.00000000E+00
  0.00000000E+00  0.00000000E+00  0.00000000E+00
  0.00000000E+00  0.00000000E+00  0.00000000E+00
  0.00000000E+00  0.00000000E+00  0.00000000E+00
  0.00000000E+00  0.00000000E+00  0.00000000E+00
  0.00000000E+00  0.00000000E+00  0.00000000E+00
  0.00000000E+00  0.00000000E+00  0.00000000E+00
  0.00000000E+00  0.00000000E+00  0.00000000E+00
  0.00000000E+00  0.00000000E+00  0.00000000E+00
  0.00000000E+00  0.00000000E+00  0.00000000E+00
  0.00000000E+00  0.00000000E+00  0.00000000E+00
  0.00000000E+00  0.00000000E+00  0.00000000E+00
  0.00000000E+00  0.00000000E+00  0.00000000E+00
  0.00000000E+00  0.00000000E+00  0.00000000E+00
  0.00000000E+00  0.00000000E+00  0.00000000E+00
  0.00000000E+00  0.00000000E+00  0.00000000E+00
  0.00000000E+00  0.00000000E+00  0.00000000E+00
  0.00000000E+00  0.00000000E+00  0.00000000E+00
  0.00000000E+00  0.00000000E+00  0.00000000E+00
  0.00000000E+00  0.00000000E+00  0.00000000E+00
  0.00000000E+00  0.00000000E+00  0.00000000E+00
  0.00000000E+00  0.00000000E+00  0.00000000E+00
  0.00000000E+00  0.00000000E+00  0.00000000E+00
  0.00000000E+00  0.00000000E+00  0.00000000E+00
  0.00000000E+00  0.00000000E+00  0.00000000E+00
  0.00000000E+00  0.00000000E+00  0.00000000E+00
  0.00000000E+00  0.00000000E+00  0.00000000E+00
  0.00000000E+00  0.00000000E+00  0.00000000E+00
  0.00000000E+00  0.00000000E+00  0.00000000E+00
  0.00000000E+00  0.00000000E+00  0.00000000E+00
  0.00000000E+00  0.00000000E+00  0.00000000E+00
  0.00000000E+00  0.00000000E+00  0.00000000E+00
  0.00000000E+00  0.00000000E+00  0.00000000E+00
  0.00000000E+00  0.00000000E+00  0.00000000E+00
  0.00000000E+00  0.00000000E+00  0.00000000E+00
  0.00000000E+00  0.00000000E+00  0.00000000E+00
  0.00000000E+00  0.00000000E+00  0.00000000E+00
  0.00000000E+00  0.00000000E+00  0.00000000E+00
  0.00000000E+00  0.00000000E+00  0.00000000E+00
  0.00000000E+00  0.00000000E+00  0.00000000E+00
  0.00000000E+00  0.00000000E+00  0.00000000E+00
  0.00000000E+00  0.00000000E+00  0.00000000E+00
  0.00000000E+00  0.00000000E+00  0.00000000E+00
  0.00000000E+00  0.00000000E+00  0.00000000E+00
  0.00000000E+00  0.00000000E+00  0.00000000E+00
  0.00000000E+00  0.00000000E+00  0.00000000E+00
  0.00000000E+00  0.00000000E+00  0.00000000E+00
  0.00000000E+00  0.00000000E+00  0.00000000E+00
  0.00000000E+00  0.00000000E+00  0.00000000E+00
  0.00000000E+00  0.00000000E+00  0.00000000E+00
  0.00000000E+00  0.00000000E+00  0.00000000E+00
  0.00000000E+00  0.00000000E+00  0.00000000E+00
  0.00000000E+00  0.00000000E+00  0.00000000E+00
  0.00000000E+00  0.00000000E+00  0.00000000E+00
  0.00000000E+00  0.00000000E+00  0.00000000E+00
  0.00000000E+00  0.00000000E+00  0.00000000E+00
  0.00000000E+00  0.00000000E+00  0.00000000E+00
  0.00000000E+00  0.00000000E+00  0.00000000E+00
  0.00000000E+00  0.00000000E+00  0.00000000E+00
  0.00000000E+00  0.00000000E+00  0.00000000E+00
  0.00000000E+00  0.00000000E+00  0.00000000E+00
  0.00000000E+00  0.00000000E+00  0.00000000E+00
  0.00000000E+00  0.00000000E+00  0.00000000E+00
  0.00000000E+00  0.00000000E+00  0.00000000E+00
  0.00000000E+00  0.00000000E+00  0.00000000E+00
  0.00000000E+00  0.00000000E+00  0.00000000E+00
  0.00000000E+00  0.00000000E+00  0.00000000E+00
  0.00000000E+00  0.00000000E+00  0.00000000E+00
  0.00000000E+00  0.00000000E+00  0.00000000E+00
  0.00000000E+00  0.00000000E+00  0.00000000E+00
  0.00000000E+00  0.00000000E+00  0.00000000E+00
  0.00000000E+00  0.00000000E+00  0.00000000E+00
  0.00000000E+00  0.00000000E+00  0.00000000E+00
  0.00000000E+00  0.00000000E+00  0.00000000E+00
  0.00000000E+00  0.00000000E+00  0.00000000E+00
  0.00000000E+00  0.00000000E+00  0.00000000E+00
  0.00000000E+00  0.00000000E+00  0.00000000E+00
  0.00000000E+00  0.00000000E+00  0.00000000E+00
  0.00000000E+00  0.00000000E+00  0.00000000E+00
  0.00000000E+00  0.00000000E+00  0.00000000E+00
  0.00000000E+00  0.00000000E+00  0.00000000E+00
