RuN5-2                                  
   1.00000000000000     
    17.0990259999999985   -9.8721239999999995    0.0000000000000000
     0.0000000000000000   19.7442530000000005    0.0000000000000000
     0.0000000000000000    0.0000000000000000   20.0000000000000000
   H    C    N    Ru
     6   124     5     1
Selective dynamics
Direct
  0.4652903350731779  0.4159445856639304  0.1481617434326641   T   T   T
  0.5713746198499222  0.4858554094833283  0.1490047888650556   T   T   T
  0.4376776249972575  0.5255672049104302  0.1477397677862837   T   T   T
  0.6189450833367991  0.6320827401828991  0.1443102943905834   T   T   T
  0.5608206489548310  0.6216275826950893  0.2155174317207958   T   T   T
  0.5505681030925026  0.6663407161142961  0.1421585218358479   T   T   T
  0.0209325677463739  0.9782788897038708  0.9891142795397782   T   T   T
  0.1039109127468722  0.0190848566512495  0.9893433110378642   T   T   T
  0.1459141539385038  0.9775140133783838  0.9911956872617084   T   T   T
  0.2290275799955490  0.0187592503391200  0.9925052097266671   T   T   T
  0.2710793120478292  0.9773096108382602  0.9951429536042891   T   T   T
  0.3543632818345308  0.0191730932912198  0.9968730362123821   T   T   T
  0.3962175138551982  0.9775042686369847  0.9986813806465336   T   T   T
  0.4793663649920881  0.0198154413306310  0.9994803936281723   T   T   T
  0.5210577953282443  0.9779275818997021  0.9994948047924883   T   T   T
  0.6042565052715404  0.0203743355267517  0.9987755873213161   T   T   T
  0.6459965532255040  0.9787202548227070  0.9970922313372133   T   T   T
  0.7291568269362553  0.0207096841016286  0.9953065240571607   T   T   T
  0.7710104503066146  0.9792191806702574  0.9928453181316657   T   T   T
  0.8540489322899787  0.0205601146794035  0.9911613279941962   T   T   T
  0.8960703027712701  0.9790132989634606  0.9895500861494618   T   T   T
  0.9790782835710767  0.0199558229464302  0.9889499855521348   T   T   T
  0.0199653116980418  0.1029631887646483  0.9891456654514704   T   T   T
  0.1028236807255550  0.1437283090869048  0.9887304411388742   T   T   T
  0.1446262466220724  0.1019250327671155  0.9887835922692184   T   T   T
  0.2275788680432433  0.1428218488289684  0.9901838389941868   T   T   T
  0.2699590834765060  0.1018372211023413  0.9921160519826929   T   T   T
  0.3531957368829852  0.1436701993244863  0.9951386715787529   T   T   T
  0.3954636899220101  0.1025925891029923  0.9971050695193723   T   T   T
  0.4786855866042989  0.1453846825948131  0.9996120936134029   T   T   T
  0.5204865504577365  0.1036566193235646  0.0000508460672245   T   T   T
  0.6036968067459266  0.1461532180928051  0.0007540067732203   T   T   T
  0.6454193650311911  0.1041269383577740  0.9994799078899144   T   T   T
  0.7285860136282899  0.1458053514699477  0.9986867724514533   T   T   T
  0.7703737507779684  0.1040360425366132  0.9962628351354931   T   T   T
  0.8535659987311869  0.1454763548098982  0.9948434906444704   T   T   T
  0.8952554138629399  0.1037616985483018  0.9921400177125791   T   T   T
  0.9783705630117675  0.1448993443099429  0.9909003512236830   T   T   T
  0.0197557427381686  0.2280594364424172  0.9925636038485179   T   T   T
  0.1028128568319079  0.2690758981994683  0.9924745640720536   T   T   T
  0.1437652753997849  0.2267107719478384  0.9902687260210152   T   T   T
  0.2263916918875324  0.2670909435450086  0.9921149305055774   T   T   T
  0.2679155415955097  0.2254560133011985  0.9920026840266298   T   T   T
  0.3504986620692215  0.2663497165019238  0.9965662139456396   T   T   T
  0.3937698171438642  0.2265601581331342  0.9975123768165988   T   T   T
  0.4771550927161070  0.2703374349285184  0.0018380904457802   T   T   T
  0.5196819809476620  0.2292522033671997  0.0017573083055089   T   T   T
  0.6028137365710690  0.2721923746136521  0.0038389724623051   T   T   T
  0.6447323927568070  0.2299583440212102  0.0023250871623228   T   T   T
  0.7280544157797300  0.2711337759050989  0.0020648259811598   T   T   T
  0.7698723634319173  0.2292456726627543  0.9999503478973900   T   T   T
  0.8532408874143044  0.2705630980786274  0.9989026479089363   T   T   T
  0.8950002006901544  0.2287633102013467  0.9963408089564936   T   T   T
  0.9782021014742532  0.2699834764674665  0.9953823319096164   T   T   T
  0.0200693571976345  0.3532470406212980  0.9974761890619080   T   T   T
  0.1035583613190050  0.3944374039060738  0.9979338458278181   T   T   T
  0.1447401027133806  0.3523735298061424  0.9961003258852832   T   T   T
  0.2276214129909028  0.3931178383411431  0.9990323911554282   T   T   T
  0.2673584522507891  0.3496796973080292  0.9975025464994508   T   T   T
  0.3486742079707097  0.3896442477304218  0.0049224367518666   T   T   T
  0.3908437352327242  0.3480306451607732  0.0034693097232321   T   T   T
  0.5157067499823200  0.3537703689296103  0.0074890313010963   T   T   T
  0.6005918926675661  0.3991556721818966  0.0094990436799894   T   T   T
  0.6431195425984837  0.3563774554480161  0.0062789302011718   T   T   T
  0.7271104939275710  0.3965466649556073  0.0046278890630055   T   T   T
  0.7692403353965361  0.3544853174308827  0.0028968448358954   T   T   T
  0.8529137849063964  0.3955477318758051  0.0016245133124095   T   T   T
  0.8948563047299312  0.3537886381850974  0.0000709166738652   T   T   T
  0.9784901165075135  0.3950224817099974  0.9994561909164925   T   T   T
  0.0209600146093260  0.4782573004001202  0.0004674331075089   T   T   T
  0.1046749925609262  0.5193809313789719  0.0008712877476047   T   T   T
  0.1463196153802150  0.4775228738990640  0.0004030386580636   T   T   T
  0.2302446179015842  0.5185717982112256  0.0024351279672878   T   T   T
  0.2713684441292294  0.4764651059474446  0.0032743067749571   T   T   T
  0.3554419727389018  0.5155972660359797  0.0095089290002708   T   T   T
  0.6456922472870391  0.4841841198869724  0.0099391387593720   T   T   T
  0.7288267225426788  0.5223619211759511  0.0039534164618884   T   T   T
  0.7699058176227148  0.4796956710858741  0.0031884567330466   T   T   T
  0.8537366794803836  0.5206738340755038  0.0010968580807510   T   T   T
  0.8953850697580872  0.4788378436397066  0.0012763606811429   T   T   T
  0.9791763812907778  0.5199963503487892  0.0007042385034043   T   T   T
  0.0216291610444069  0.6031377824987638  0.9999369967134353   T   T   T
  0.1053261189241527  0.6443569647117794  0.0003138313929600   T   T   T
  0.1472108048894260  0.6026217768715869  0.0014260592217207   T   T   T
  0.2310980036593229  0.6437482655395406  0.0025547328527295   T   T   T
  0.2732165317192473  0.6017303906559257  0.0040283129365502   T   T   T
  0.3573443501112195  0.6423085893043289  0.0056471585403877   T   T   T
  0.3997006322116136  0.5998808800003165  0.0088235449510272   T   T   T
  0.5288304580225758  0.6067141192393102  0.0124479061344366   T   T   T
  0.6518329024072138  0.6089644464223803  0.0045717106384563   T   T   T
  0.7331832405420121  0.6491955854474385  0.9976516771273063   T   T   T
  0.7726668916727051  0.6056273723891993 -0.0004468825794980   T   T   T
  0.8555732430739605  0.6461924774281862  0.9969091149359501   T   T   T
  0.8966299333078974  0.6038851488661408  0.9987678176917932   T   T   T
  0.9799769591406966  0.6449609027552667  0.9983041163001020   T   T   T
  0.0219398902345842  0.7282530327030754  0.9962925443057699   T   T   T
  0.1052196859299464  0.7694565861901955  0.9970348995977305   T   T   T
  0.1469950580281984  0.7276119681306012  0.9992845145960706   T   T   T
  0.2303365267897601  0.7688506076841474  0.0000175149986928   T   T   T
  0.2721583788078443  0.7269012833731259  0.0018855616397717   T   T   T
  0.3556044385377699  0.7680489866597831  0.0020779500218065   T   T   T
  0.3971831697184419  0.7260408570869378  0.0035219318018825   T   T   T
  0.4807556831874037  0.7682316794484298  0.0017261980961610   T   T   T
  0.5227452877345714  0.7275438870558132  0.0018420369213299   T   T   T
  0.6058532925312320  0.7700427664852006  0.9981437159283835   T   T   T
  0.6502140721006383  0.7316237376953386  0.9970835516362985   T   T   T
  0.7318341906954753  0.7723588268181270  0.9929293058845567   T   T   T
  0.7742978320853351  0.7314061404046277  0.9928843083441139   T   T   T
  0.8565028330499176  0.7716633144788164  0.9913581048018744   T   T   T
  0.8974659202815437  0.7292532507389591  0.9935004238338839   T   T   T
  0.9805357789854123  0.7702359276777985  0.9935960911654719   T   T   T
  0.0217861046597661  0.8533290324205464  0.9917841125660993   T   T   T
  0.1048042856373431  0.8943817988476378  0.9927202678779071   T   T   T
  0.1465888846948500  0.8526310416944864  0.9953868123193160   T   T   T
  0.2299102175927481  0.8940067486105835  0.9963906848682098   T   T   T
  0.2716729957901436  0.8522352628716743  0.9986804282178824   T   T   T
  0.3550653005455864  0.8938337805055149  0.9993746311116617   T   T   T
  0.3967670052875214  0.8519753209292283  0.0006264826230431   T   T   T
  0.4799758742764440  0.8941237972734710  0.0000232923946363   T   T   T
  0.5219080431341778  0.8524017145291042 -0.0002724915470178   T   T   T
  0.6048384304692703  0.8950179312957846  0.9974534519310859   T   T   T
  0.6467374128647002  0.8536604347885485  0.9958352906010646   T   T   T
  0.7299202328787511  0.8959112723002265  0.9928975378402101   T   T   T
  0.7723178827565470  0.8552884286230146  0.9911510943190948   T   T   T
  0.8552957375676510  0.8961615739691382  0.9895758665970469   T   T   T
  0.8973952188648124  0.8546821956321348  0.9897150263893540   T   T   T
  0.9800531927220192  0.8953054072956571  0.9898891379158795   T   T   T
  0.5126993147046536  0.4750483733988587  0.1367737913888977   T   T   T
  0.4976499133892370  0.5389814495852854  0.1369304612025809   T   T   T
  0.5602969262682806  0.6192335840868016  0.1603295539017808   T   T   T
  0.4706067037569332  0.3892007385502947  0.0107044429084893   T   T   T
  0.3898409084386169  0.4693922937668931  0.0158276605647412   T   T   T
  0.6107785618532289  0.5308846572928302  0.0149265919932818   T   T   T
  0.4844011144008264  0.6444351095154046  0.0072851028420612   T   T   T
  0.6101085135574666  0.6503298401353590  0.0030188915043219   T   T   T
  0.4994283509391254  0.5006397034759169  0.0350232921371932   T   T   T
 
  0.00000000E+00  0.00000000E+00  0.00000000E+00
  0.00000000E+00  0.00000000E+00  0.00000000E+00
  0.00000000E+00  0.00000000E+00  0.00000000E+00
  0.00000000E+00  0.00000000E+00  0.00000000E+00
  0.00000000E+00  0.00000000E+00  0.00000000E+00
  0.00000000E+00  0.00000000E+00  0.00000000E+00
  0.00000000E+00  0.00000000E+00  0.00000000E+00
  0.00000000E+00  0.00000000E+00  0.00000000E+00
  0.00000000E+00  0.00000000E+00  0.00000000E+00
  0.00000000E+00  0.00000000E+00  0.00000000E+00
  0.00000000E+00  0.00000000E+00  0.00000000E+00
  0.00000000E+00  0.00000000E+00  0.00000000E+00
  0.00000000E+00  0.00000000E+00  0.00000000E+00
  0.00000000E+00  0.00000000E+00  0.00000000E+00
  0.00000000E+00  0.00000000E+00  0.00000000E+00
  0.00000000E+00  0.00000000E+00  0.00000000E+00
  0.00000000E+00  0.00000000E+00  0.00000000E+00
  0.00000000E+00  0.00000000E+00  0.00000000E+00
  0.00000000E+00  0.00000000E+00  0.00000000E+00
  0.00000000E+00  0.00000000E+00  0.00000000E+00
  0.00000000E+00  0.00000000E+00  0.00000000E+00
  0.00000000E+00  0.00000000E+00  0.00000000E+00
  0.00000000E+00  0.00000000E+00  0.00000000E+00
  0.00000000E+00  0.00000000E+00  0.00000000E+00
  0.00000000E+00  0.00000000E+00  0.00000000E+00
  0.00000000E+00  0.00000000E+00  0.00000000E+00
  0.00000000E+00  0.00000000E+00  0.00000000E+00
  0.00000000E+00  0.00000000E+00  0.00000000E+00
  0.00000000E+00  0.00000000E+00  0.00000000E+00
  0.00000000E+00  0.00000000E+00  0.00000000E+00
  0.00000000E+00  0.00000000E+00  0.00000000E+00
  0.00000000E+00  0.00000000E+00  0.00000000E+00
  0.00000000E+00  0.00000000E+00  0.00000000E+00
  0.00000000E+00  0.00000000E+00  0.00000000E+00
  0.00000000E+00  0.00000000E+00  0.00000000E+00
  0.00000000E+00  0.00000000E+00  0.00000000E+00
  0.00000000E+00  0.00000000E+00  0.00000000E+00
  0.00000000E+00  0.00000000E+00  0.00000000E+00
  0.00000000E+00  0.00000000E+00  0.00000000E+00
  0.00000000E+00  0.00000000E+00  0.00000000E+00
  0.00000000E+00  0.00000000E+00  0.00000000E+00
  0.00000000E+00  0.00000000E+00  0.00000000E+00
  0.00000000E+00  0.00000000E+00  0.00000000E+00
  0.00000000E+00  0.00000000E+00  0.00000000E+00
  0.00000000E+00  0.00000000E+00  0.00000000E+00
  0.00000000E+00  0.00000000E+00  0.00000000E+00
  0.00000000E+00  0.00000000E+00  0.00000000E+00
  0.00000000E+00  0.00000000E+00  0.00000000E+00
  0.00000000E+00  0.00000000E+00  0.00000000E+00
  0.00000000E+00  0.00000000E+00  0.00000000E+00
  0.00000000E+00  0.00000000E+00  0.00000000E+00
  0.00000000E+00  0.00000000E+00  0.00000000E+00
  0.00000000E+00  0.00000000E+00  0.00000000E+00
  0.00000000E+00  0.00000000E+00  0.00000000E+00
  0.00000000E+00  0.00000000E+00  0.00000000E+00
  0.00000000E+00  0.00000000E+00  0.00000000E+00
  0.00000000E+00  0.00000000E+00  0.00000000E+00
  0.00000000E+00  0.00000000E+00  0.00000000E+00
  0.00000000E+00  0.00000000E+00  0.00000000E+00
  0.00000000E+00  0.00000000E+00  0.00000000E+00
  0.00000000E+00  0.00000000E+00  0.00000000E+00
  0.00000000E+00  0.00000000E+00  0.00000000E+00
  0.00000000E+00  0.00000000E+00  0.00000000E+00
  0.00000000E+00  0.00000000E+00  0.00000000E+00
  0.00000000E+00  0.00000000E+00  0.00000000E+00
  0.00000000E+00  0.00000000E+00  0.00000000E+00
  0.00000000E+00  0.00000000E+00  0.00000000E+00
  0.00000000E+00  0.00000000E+00  0.00000000E+00
  0.00000000E+00  0.00000000E+00  0.00000000E+00
  0.00000000E+00  0.00000000E+00  0.00000000E+00
  0.00000000E+00  0.00000000E+00  0.00000000E+00
  0.00000000E+00  0.00000000E+00  0.00000000E+00
  0.00000000E+00  0.00000000E+00  0.00000000E+00
  0.00000000E+00  0.00000000E+00  0.00000000E+00
  0.00000000E+00  0.00000000E+00  0.00000000E+00
  0.00000000E+00  0.00000000E+00  0.00000000E+00
  0.00000000E+00  0.00000000E+00  0.00000000E+00
  0.00000000E+00  0.00000000E+00  0.00000000E+00
  0.00000000E+00  0.00000000E+00  0.00000000E+00
  0.00000000E+00  0.00000000E+00  0.00000000E+00
  0.00000000E+00  0.00000000E+00  0.00000000E+00
  0.00000000E+00  0.00000000E+00  0.00000000E+00
  0.00000000E+00  0.00000000E+00  0.00000000E+00
  0.00000000E+00  0.00000000E+00  0.00000000E+00
  0.00000000E+00  0.00000000E+00  0.00000000E+00
  0.00000000E+00  0.00000000E+00  0.00000000E+00
  0.00000000E+00  0.00000000E+00  0.00000000E+00
  0.00000000E+00  0.00000000E+00  0.00000000E+00
  0.00000000E+00  0.00000000E+00  0.00000000E+00
  0.00000000E+00  0.00000000E+00  0.00000000E+00
  0.00000000E+00  0.00000000E+00  0.00000000E+00
  0.00000000E+00  0.00000000E+00  0.00000000E+00
  0.00000000E+00  0.00000000E+00  0.00000000E+00
  0.00000000E+00  0.00000000E+00  0.00000000E+00
  0.00000000E+00  0.00000000E+00  0.00000000E+00
  0.00000000E+00  0.00000000E+00  0.00000000E+00
  0.00000000E+00  0.00000000E+00  0.00000000E+00
  0.00000000E+00  0.00000000E+00  0.00000000E+00
  0.00000000E+00  0.00000000E+00  0.00000000E+00
  0.00000000E+00  0.00000000E+00  0.00000000E+00
  0.00000000E+00  0.00000000E+00  0.00000000E+00
  0.00000000E+00  0.00000000E+00  0.00000000E+00
  0.00000000E+00  0.00000000E+00  0.00000000E+00
  0.00000000E+00  0.00000000E+00  0.00000000E+00
  0.00000000E+00  0.00000000E+00  0.00000000E+00
  0.00000000E+00  0.00000000E+00  0.00000000E+00
  0.00000000E+00  0.00000000E+00  0.00000000E+00
  0.00000000E+00  0.00000000E+00  0.00000000E+00
  0.00000000E+00  0.00000000E+00  0.00000000E+00
  0.00000000E+00  0.00000000E+00  0.00000000E+00
  0.00000000E+00  0.00000000E+00  0.00000000E+00
  0.00000000E+00  0.00000000E+00  0.00000000E+00
  0.00000000E+00  0.00000000E+00  0.00000000E+00
  0.00000000E+00  0.00000000E+00  0.00000000E+00
  0.00000000E+00  0.00000000E+00  0.00000000E+00
  0.00000000E+00  0.00000000E+00  0.00000000E+00
  0.00000000E+00  0.00000000E+00  0.00000000E+00
  0.00000000E+00  0.00000000E+00  0.00000000E+00
  0.00000000E+00  0.00000000E+00  0.00000000E+00
  0.00000000E+00  0.00000000E+00  0.00000000E+00
  0.00000000E+00  0.00000000E+00  0.00000000E+00
  0.00000000E+00  0.00000000E+00  0.00000000E+00
  0.00000000E+00  0.00000000E+00  0.00000000E+00
  0.00000000E+00  0.00000000E+00  0.00000000E+00
  0.00000000E+00  0.00000000E+00  0.00000000E+00
  0.00000000E+00  0.00000000E+00  0.00000000E+00
  0.00000000E+00  0.00000000E+00  0.00000000E+00
  0.00000000E+00  0.00000000E+00  0.00000000E+00
  0.00000000E+00  0.00000000E+00  0.00000000E+00
  0.00000000E+00  0.00000000E+00  0.00000000E+00
  0.00000000E+00  0.00000000E+00  0.00000000E+00
  0.00000000E+00  0.00000000E+00  0.00000000E+00
  0.00000000E+00  0.00000000E+00  0.00000000E+00
  0.00000000E+00  0.00000000E+00  0.00000000E+00
  0.00000000E+00  0.00000000E+00  0.00000000E+00
  0.00000000E+00  0.00000000E+00  0.00000000E+00
