RuN5                                    
   1.00000000000000     
    17.0990259999999985   -9.8721239999999995    0.0000000000000000
     0.0000000000000000   19.7442530000000005    0.0000000000000000
     0.0000000000000000    0.0000000000000000   20.0000000000000000
   H    C    N    Ru
     6   124     5     1
Selective dynamics
Direct
  0.4388094134275871  0.4107409720520716  0.1429605201790442   T   T   T
  0.5460365424771859  0.4630469277061904  0.1508841728575632   T   T   T
  0.4399794571159025  0.5368548724525327  0.1399839187041111   T   T   T
  0.6209492204128445  0.6138806173950603  0.1493085772374351   T   T   T
  0.5605817841714038  0.6107149854268964  0.2166067372952125   T   T   T
  0.5685518047674775  0.6654152981878745  0.1435159971013905   T   T   T
  0.0214908927657793  0.9788568372509955  0.9901349495830180   T   T   T
  0.1044617792741182  0.0198444109546486  0.9905088779691258   T   T   T
  0.1464199024297356  0.9782823864459935  0.9920742680022919   T   T   T
  0.2295961492884800  0.0197257655531974  0.9932276960609316   T   T   T
  0.2714554450057704  0.9781521271744044  0.9955028503939231   T   T   T
  0.3547063576055647  0.0199996223925520  0.9969668108582596   T   T   T
  0.3964454532643535  0.9781571733636085  0.9987140576052393   T   T   T
  0.4796615635544548  0.0204863354317914  0.9992553645723035   T   T   T
  0.5212334768889056  0.9785650141054758  0.9993537019748869   T   T   T
  0.6044917236554204  0.0209604296367776  0.9983456257596154   T   T   T
  0.6462567032787738  0.9791724292455507  0.9969318665741714   T   T   T
  0.7294452421205513  0.0210430187993691  0.9951395228827785   T   T   T
  0.7712949641480830  0.9794587434016877  0.9933178388904925   T   T   T
  0.8545472393010193  0.0209917420905381  0.9917964611061694   T   T   T
  0.8966712267192595  0.9796034421267792  0.9905947409193031   T   T   T
  0.9796478702003009  0.0205910318324840  0.9900141840532997   T   T   T
  0.0205697426258987  0.1035615839118322  0.9904577113588054   T   T   T
  0.1035095808494420  0.1445160427173319  0.9903909648316682   T   T   T
  0.1453267213247120  0.1027731040272672  0.9902941280509187   T   T   T
  0.2282811648542298  0.1438010852446256  0.9911988282740615   T   T   T
  0.2706294878603875  0.1028558195854656  0.9926689150820817   T   T   T
  0.3539784047679745  0.1448529851153070  0.9946530158881761   T   T   T
  0.3958800983763433  0.1034256741029011  0.9967586536775310   T   T   T
  0.4791895449024482  0.1460036304558221  0.9988413650936850   T   T   T
  0.5209411370794482  0.1041700346564462  0.9994142113485475   T   T   T
  0.6040526810930570  0.1466893016510330  0.9997325142671714   T   T   T
  0.6457145068268719  0.1045705629504399  0.9985811002251317   T   T   T
  0.7290078178785451  0.1461948914017581  0.9976376112651054   T   T   T
  0.7707533807673349  0.1043842960652329  0.9956387937294611   T   T   T
  0.8539537469427982  0.1458679167529628  0.9945432655773271   T   T   T
  0.8957196627057554  0.1041222747501593  0.9925009835806460   T   T   T
  0.9788626685916768  0.1453838676362371  0.9918558580019876   T   T   T
  0.0202725904085300  0.2285799067887550  0.9935424756276692   T   T   T
  0.1033412037818238  0.2696690671718116  0.9937291350751462   T   T   T
  0.1444485493398316  0.2274776399441010  0.9917498041344530   T   T   T
  0.2272190985049456  0.2680847562686869  0.9924453881032030   T   T   T
  0.2687755093684659  0.2265853798090310  0.9919057874231335   T   T   T
  0.3516303144222445  0.2679436997596566  0.9940996667584185   T   T   T
  0.3948556291268332  0.2279806284853158  0.9954342217193854   T   T   T
  0.4785134403108164  0.2710166351413388  0.9990567100798010   T   T   T
  0.5201196612105624  0.2294218473690706  0.0002773978054090   T   T   T
  0.6033111217753735  0.2729508690717900  0.0023868151011197   T   T   T
  0.6453593964756436  0.2306012772199292  0.0009602212129426   T   T   T
  0.7284377337698147  0.2715193517993466  0.0006328509288538   T   T   T
  0.7703555612927712  0.2295264357503904  0.9987033585115325   T   T   T
  0.8536174861636232  0.2708828646555846  0.9980008924596162   T   T   T
  0.8954041408671494  0.2290918800842962  0.9959695682908606   T   T   T
  0.9786657484195199  0.2704029256907790  0.9956700806420035   T   T   T
  0.0204545131283617  0.3536247667151964  0.9977200703856547   T   T   T
  0.1038172053127203  0.3948293715314635  0.9984774283206477   T   T   T
  0.1452057062876194  0.3529599682021698  0.9967674760605149   T   T   T
  0.2281828248301564  0.3938467529558897  0.9986702982757244   T   T   T
  0.2684515830645482  0.3509212638192101  0.9964130111312943   T   T   T
  0.3501855622417778  0.3917383365768999  0.0014388214983652   T   T   T
  0.3925158416792500  0.3498983751091832  0.9986071770684093   T   T   T
  0.5169349394791262  0.3542799509102296  0.0031437706878415   T   T   T
  0.6438160413927250  0.3563359618925548  0.0047261378275390   T   T   T
  0.7271626643145191  0.3967838726107114  0.0032764429360472   T   T   T
  0.7693655067339216  0.3546339789926807  0.0015570101646129   T   T   T
  0.8532307363447323  0.3959257855195240  0.0005358913407364   T   T   T
  0.8952093845651625  0.3541843671376364  0.9992338049410522   T   T   T
  0.9787682391791700  0.3954391055416533  0.9991410046769464   T   T   T
  0.0211793321657976  0.4786805149167409  0.0002153650081822   T   T   T
  0.1047718591617298  0.5199806227379314  0.0009949373385680   T   T   T
  0.1463826808506955  0.4780680551867676  0.0008002912409579   T   T   T
  0.2297375562848129  0.5190317810401276  0.0026924517474801   T   T   T
  0.2711637984917251  0.4772821646367875  0.0025000554321198   T   T   T
  0.3543636711748891  0.5162456767798705  0.0081162461796118   T   T   T
  0.6462062420703107  0.4837878288919444  0.0103205013145298   T   T   T
  0.7295196173429035  0.5219714062028712  0.0038350339365419   T   T   T
  0.7707792485128147  0.4800517257960155  0.0022033233097644   T   T   T
  0.8541827700222853  0.5209479165353389  0.0005970163271056   T   T   T
  0.8958176132683588  0.4790658737581441  0.0005176279869782   T   T   T
  0.9794151979498980  0.5203561289557255  0.0002438621800809   T   T   T
  0.0219667351314530  0.6036353569762237  0.9996759473760439   T   T   T
  0.1054580789676974  0.6449387378187330  0.0001936939113658   T   T   T
  0.1473050838023589  0.6031538653271219  0.0015350121797207   T   T   T
  0.2310556236364903  0.6445085969211387  0.0029729669332636   T   T   T
  0.2729922080082094  0.6023010512095104  0.0045774389810957   T   T   T
  0.3561987998505804  0.6426353931155775  0.0063423052124783   T   T   T
  0.4825555417667570  0.6439995989609890  0.0079836355094213   T   T   T
  0.5275691239054656  0.6075779301280736  0.0146462651020664   T   T   T
  0.6100370585041378  0.6498051610242043  0.0074680164195631   T   T   T
  0.6528064647880201  0.6086368107356950  0.0096870941872100   T   T   T
  0.7336561651608622  0.6487402596741468  0.0020048594283269   T   T   T
  0.7733088364836419  0.6054509702434858  0.0016767729808612   T   T   T
  0.8561365352598798  0.6463504999168120  0.9985122400378282   T   T   T
  0.8971557704791626  0.6042881179647070  0.9991040847188717   T   T   T
  0.9804531492482268  0.6455252643020853  0.9984152166561842   T   T   T
  0.0222678987097912  0.7288007646155675  0.9966659489968344   T   T   T
  0.1054913181164725  0.7701202642301918  0.9970948140649357   T   T   T
  0.1471858895770154  0.7282832789518436  0.9992567528089801   T   T   T
  0.2304703699968091  0.7696720962668666  0.0001771325696973   T   T   T
  0.2722730313191365  0.7276318328014717  0.0023092227707801   T   T   T
  0.3554303377316909  0.7685012370968013  0.0025979935709315   T   T   T
  0.3973935480639044  0.7262191697860220  0.0040723354954759   T   T   T
  0.4808306718950507  0.7696421897572189  0.0017994133039671   T   T   T
  0.5221233704722293  0.7276800018532281  0.0019333773813907   T   T   T
  0.6058788665276077  0.7707899561682744  0.9990139421659050   T   T   T
  0.6498760031386518  0.7314601229012252  0.9997165482767025   T   T   T
  0.7326314866497010  0.7730300889280565  0.9959205238667891   T   T   T
  0.7743302535713559  0.7316235895932715  0.9966729814498607   T   T   T
  0.8568570952463038  0.7720693803955831  0.9940451381619166   T   T   T
  0.8978641499861982  0.7296982170977327  0.9955529760919808   T   T   T
  0.9808017097506182  0.7707561612991524  0.9946711454379699   T   T   T
  0.0221847494356646  0.8539656285263733  0.9926794197429036   T   T   T
  0.1052580796263901  0.8951461374134289  0.9932714797063207   T   T   T
  0.1469722454103590  0.8533775932372794  0.9955898387202440   T   T   T
  0.2301767522344529  0.8948487333512045  0.9966103835730380   T   T   T
  0.2718855078245646  0.8529804158975627  0.9988660800308782   T   T   T
  0.3551824706698575  0.8945579815773260  0.9995612103030910   T   T   T
  0.3968281228764106  0.8524495106551380  0.0009268608968532   T   T   T
  0.4799574269691524  0.8948911587977534  0.0001852746129121   T   T   T
  0.5217263111040740  0.8530433840839053 -0.0001036858756556   T   T   T
  0.6050620084641481  0.8956482681127514  0.9975942165366796   T   T   T
  0.6468327510955937  0.8541798936871505  0.9964782680015276   T   T   T
  0.7302329842191471  0.8963400021514687  0.9939422423979866   T   T   T
  0.7729576171275852  0.8556545293449882  0.9930774012272855   T   T   T
  0.8558677204181475  0.8966880961483554  0.9912085127847670   T   T   T
  0.8977234740011876  0.8549845758641713  0.9915363196413979   T   T   T
  0.9806150633349849  0.8958932816110503  0.9910439296041792   T   T   T
  0.4941671010223685  0.4647927416582603  0.1337634103505052   T   T   T
  0.4960409211130218  0.5387091606193796  0.1330051237218801   T   T   T
  0.5653344824244106  0.6112699359483015  0.1615844893113859   T   T   T
  0.4734487171754649  0.3899148054246958  0.0041574912507883   T   T   T
  0.6010585453506436  0.3989843691610569  0.0078431577201489   T   T   T
  0.3903274037181895  0.4724552998695459  0.0125551978121628   T   T   T
  0.6115075926056783  0.5278247678488271  0.0193550870698572   T   T   T
  0.3978595139342397  0.6000214744710554  0.0093221881706739   T   T   T
  0.4993941816910831  0.4991463164634207  0.0329262146160641   T   T   T
 
  0.00000000E+00  0.00000000E+00  0.00000000E+00
  0.00000000E+00  0.00000000E+00  0.00000000E+00
  0.00000000E+00  0.00000000E+00  0.00000000E+00
  0.00000000E+00  0.00000000E+00  0.00000000E+00
  0.00000000E+00  0.00000000E+00  0.00000000E+00
  0.00000000E+00  0.00000000E+00  0.00000000E+00
  0.00000000E+00  0.00000000E+00  0.00000000E+00
  0.00000000E+00  0.00000000E+00  0.00000000E+00
  0.00000000E+00  0.00000000E+00  0.00000000E+00
  0.00000000E+00  0.00000000E+00  0.00000000E+00
  0.00000000E+00  0.00000000E+00  0.00000000E+00
  0.00000000E+00  0.00000000E+00  0.00000000E+00
  0.00000000E+00  0.00000000E+00  0.00000000E+00
  0.00000000E+00  0.00000000E+00  0.00000000E+00
  0.00000000E+00  0.00000000E+00  0.00000000E+00
  0.00000000E+00  0.00000000E+00  0.00000000E+00
  0.00000000E+00  0.00000000E+00  0.00000000E+00
  0.00000000E+00  0.00000000E+00  0.00000000E+00
  0.00000000E+00  0.00000000E+00  0.00000000E+00
  0.00000000E+00  0.00000000E+00  0.00000000E+00
  0.00000000E+00  0.00000000E+00  0.00000000E+00
  0.00000000E+00  0.00000000E+00  0.00000000E+00
  0.00000000E+00  0.00000000E+00  0.00000000E+00
  0.00000000E+00  0.00000000E+00  0.00000000E+00
  0.00000000E+00  0.00000000E+00  0.00000000E+00
  0.00000000E+00  0.00000000E+00  0.00000000E+00
  0.00000000E+00  0.00000000E+00  0.00000000E+00
  0.00000000E+00  0.00000000E+00  0.00000000E+00
  0.00000000E+00  0.00000000E+00  0.00000000E+00
  0.00000000E+00  0.00000000E+00  0.00000000E+00
  0.00000000E+00  0.00000000E+00  0.00000000E+00
  0.00000000E+00  0.00000000E+00  0.00000000E+00
  0.00000000E+00  0.00000000E+00  0.00000000E+00
  0.00000000E+00  0.00000000E+00  0.00000000E+00
  0.00000000E+00  0.00000000E+00  0.00000000E+00
  0.00000000E+00  0.00000000E+00  0.00000000E+00
  0.00000000E+00  0.00000000E+00  0.00000000E+00
  0.00000000E+00  0.00000000E+00  0.00000000E+00
  0.00000000E+00  0.00000000E+00  0.00000000E+00
  0.00000000E+00  0.00000000E+00  0.00000000E+00
  0.00000000E+00  0.00000000E+00  0.00000000E+00
  0.00000000E+00  0.00000000E+00  0.00000000E+00
  0.00000000E+00  0.00000000E+00  0.00000000E+00
  0.00000000E+00  0.00000000E+00  0.00000000E+00
  0.00000000E+00  0.00000000E+00  0.00000000E+00
  0.00000000E+00  0.00000000E+00  0.00000000E+00
  0.00000000E+00  0.00000000E+00  0.00000000E+00
  0.00000000E+00  0.00000000E+00  0.00000000E+00
  0.00000000E+00  0.00000000E+00  0.00000000E+00
  0.00000000E+00  0.00000000E+00  0.00000000E+00
  0.00000000E+00  0.00000000E+00  0.00000000E+00
  0.00000000E+00  0.00000000E+00  0.00000000E+00
  0.00000000E+00  0.00000000E+00  0.00000000E+00
  0.00000000E+00  0.00000000E+00  0.00000000E+00
  0.00000000E+00  0.00000000E+00  0.00000000E+00
  0.00000000E+00  0.00000000E+00  0.00000000E+00
  0.00000000E+00  0.00000000E+00  0.00000000E+00
  0.00000000E+00  0.00000000E+00  0.00000000E+00
  0.00000000E+00  0.00000000E+00  0.00000000E+00
  0.00000000E+00  0.00000000E+00  0.00000000E+00
  0.00000000E+00  0.00000000E+00  0.00000000E+00
  0.00000000E+00  0.00000000E+00  0.00000000E+00
  0.00000000E+00  0.00000000E+00  0.00000000E+00
  0.00000000E+00  0.00000000E+00  0.00000000E+00
  0.00000000E+00  0.00000000E+00  0.00000000E+00
  0.00000000E+00  0.00000000E+00  0.00000000E+00
  0.00000000E+00  0.00000000E+00  0.00000000E+00
  0.00000000E+00  0.00000000E+00  0.00000000E+00
  0.00000000E+00  0.00000000E+00  0.00000000E+00
  0.00000000E+00  0.00000000E+00  0.00000000E+00
  0.00000000E+00  0.00000000E+00  0.00000000E+00
  0.00000000E+00  0.00000000E+00  0.00000000E+00
  0.00000000E+00  0.00000000E+00  0.00000000E+00
  0.00000000E+00  0.00000000E+00  0.00000000E+00
  0.00000000E+00  0.00000000E+00  0.00000000E+00
  0.00000000E+00  0.00000000E+00  0.00000000E+00
  0.00000000E+00  0.00000000E+00  0.00000000E+00
  0.00000000E+00  0.00000000E+00  0.00000000E+00
  0.00000000E+00  0.00000000E+00  0.00000000E+00
  0.00000000E+00  0.00000000E+00  0.00000000E+00
  0.00000000E+00  0.00000000E+00  0.00000000E+00
  0.00000000E+00  0.00000000E+00  0.00000000E+00
  0.00000000E+00  0.00000000E+00  0.00000000E+00
  0.00000000E+00  0.00000000E+00  0.00000000E+00
  0.00000000E+00  0.00000000E+00  0.00000000E+00
  0.00000000E+00  0.00000000E+00  0.00000000E+00
  0.00000000E+00  0.00000000E+00  0.00000000E+00
  0.00000000E+00  0.00000000E+00  0.00000000E+00
  0.00000000E+00  0.00000000E+00  0.00000000E+00
  0.00000000E+00  0.00000000E+00  0.00000000E+00
  0.00000000E+00  0.00000000E+00  0.00000000E+00
  0.00000000E+00  0.00000000E+00  0.00000000E+00
  0.00000000E+00  0.00000000E+00  0.00000000E+00
  0.00000000E+00  0.00000000E+00  0.00000000E+00
  0.00000000E+00  0.00000000E+00  0.00000000E+00
  0.00000000E+00  0.00000000E+00  0.00000000E+00
  0.00000000E+00  0.00000000E+00  0.00000000E+00
  0.00000000E+00  0.00000000E+00  0.00000000E+00
  0.00000000E+00  0.00000000E+00  0.00000000E+00
  0.00000000E+00  0.00000000E+00  0.00000000E+00
  0.00000000E+00  0.00000000E+00  0.00000000E+00
  0.00000000E+00  0.00000000E+00  0.00000000E+00
  0.00000000E+00  0.00000000E+00  0.00000000E+00
  0.00000000E+00  0.00000000E+00  0.00000000E+00
  0.00000000E+00  0.00000000E+00  0.00000000E+00
  0.00000000E+00  0.00000000E+00  0.00000000E+00
  0.00000000E+00  0.00000000E+00  0.00000000E+00
  0.00000000E+00  0.00000000E+00  0.00000000E+00
  0.00000000E+00  0.00000000E+00  0.00000000E+00
  0.00000000E+00  0.00000000E+00  0.00000000E+00
  0.00000000E+00  0.00000000E+00  0.00000000E+00
  0.00000000E+00  0.00000000E+00  0.00000000E+00
  0.00000000E+00  0.00000000E+00  0.00000000E+00
  0.00000000E+00  0.00000000E+00  0.00000000E+00
  0.00000000E+00  0.00000000E+00  0.00000000E+00
  0.00000000E+00  0.00000000E+00  0.00000000E+00
  0.00000000E+00  0.00000000E+00  0.00000000E+00
  0.00000000E+00  0.00000000E+00  0.00000000E+00
  0.00000000E+00  0.00000000E+00  0.00000000E+00
  0.00000000E+00  0.00000000E+00  0.00000000E+00
  0.00000000E+00  0.00000000E+00  0.00000000E+00
  0.00000000E+00  0.00000000E+00  0.00000000E+00
  0.00000000E+00  0.00000000E+00  0.00000000E+00
  0.00000000E+00  0.00000000E+00  0.00000000E+00
  0.00000000E+00  0.00000000E+00  0.00000000E+00
  0.00000000E+00  0.00000000E+00  0.00000000E+00
  0.00000000E+00  0.00000000E+00  0.00000000E+00
  0.00000000E+00  0.00000000E+00  0.00000000E+00
  0.00000000E+00  0.00000000E+00  0.00000000E+00
  0.00000000E+00  0.00000000E+00  0.00000000E+00
  0.00000000E+00  0.00000000E+00  0.00000000E+00
  0.00000000E+00  0.00000000E+00  0.00000000E+00
  0.00000000E+00  0.00000000E+00  0.00000000E+00
  0.00000000E+00  0.00000000E+00  0.00000000E+00
  0.00000000E+00  0.00000000E+00  0.00000000E+00
  0.00000000E+00  0.00000000E+00  0.00000000E+00
