RuN3                                    
   1.00000000000000     
    17.0990259999999985   -9.8721239999999995    0.0000000000000000
     0.0000000000000000   19.7442530000000005    0.0000000000000000
     0.0000000000000000    0.0000000000000000   20.0000000000000000
   H    C    N    Ru
     6   126     3     1
Selective dynamics
Direct
  0.3977405216618247  0.4360978525076999  0.1492914940634105   T   T   T
  0.4918520715409939  0.4410276899034002  0.1662605455875394   T   T   T
  0.4648120595615405  0.5803178982467483  0.1394685845965405   T   T   T
  0.6177632358975310  0.5765084417687780  0.1684856926654434   T   T   T
  0.5747448572132070  0.6139349084168930  0.2250258972895793   T   T   T
  0.6130737255886198  0.6618456514356974  0.1475594225484836   T   T   T
  0.0216798673409463  0.9786524068430335  0.9848878741068999   T   T   T
  0.1046598400358103  0.0196172599383513  0.9857553080505335   T   T   T
  0.1465819471033149  0.9780600108293757  0.9879317348787586   T   T   T
  0.2297510018350258  0.0194939749451463  0.9900749708161944   T   T   T
  0.2716579385823015  0.9779400469193608  0.9930371351770236   T   T   T
  0.3548826711030483  0.0197693192634603  0.9954398421453139   T   T   T
  0.3966199010434411  0.9780627981195548  0.9974449550632756   T   T   T
  0.4798336141091300  0.0203575348691393  0.9983139851441372   T   T   T
  0.5214912844393589  0.9785052406832306  0.9981345369754520   T   T   T
  0.6047005254043850  0.0207887362564495  0.9967261743649894   T   T   T
  0.6464472568598114  0.9790329769564332  0.9945456352471550   T   T   T
  0.7296478856227141  0.0209291675168620  0.9919881090714008   T   T   T
  0.7715247754572392  0.9793714235224237  0.9892573113323663   T   T   T
  0.8547502199926882  0.0208627942991970  0.9870880260144741   T   T   T
  0.8968138875626791  0.9794031656067370  0.9853673725433595   T   T   T
  0.9798074670024010  0.0203986418147366  0.9846200685915736   T   T   T
  0.0207140068923358  0.1033879667374852  0.9855467226795148   T   T   T
  0.1036962774551469  0.1443312646004642  0.9861256614662244   T   T   T
  0.1454969217945424  0.1025760671738759  0.9860800300969633   T   T   T
  0.2284275933728205  0.1436184570889408  0.9884151784742842   T   T   T
  0.2707375230338993  0.1025302704534225  0.9903442222156016   T   T   T
  0.3539648671776776  0.1443818294356259  0.9940658484773095   T   T   T
  0.3960943496165566  0.1032350123990626  0.9961549408251794   T   T   T
  0.4792969124795223  0.1458657470481504  0.9991411092785438   T   T   T
  0.5210616848764230  0.1040669652656287  0.9991617642324114   T   T   T
  0.6042776712598871  0.1463752663673706  0.9997315787378127   T   T   T
  0.6459748325847455  0.1043911403566263  0.9975692051742626   T   T   T
  0.7292213149814619  0.1460235108292541  0.9963472175905411   T   T   T
  0.7709300442450915  0.1042408828655749  0.9930450173776779   T   T   T
  0.8541240786823709  0.1456982343810589  0.9915085585315685   T   T   T
  0.8958797440017888  0.1039874473552165  0.9883112508455018   T   T   T
  0.9790119390639151  0.1451825612740278  0.9875946850413786   T   T   T
  0.0203703744745985  0.2283208541291185  0.9903983765586742   T   T   T
  0.1033786181717265  0.2693677635653114  0.9913074806017809   T   T   T
  0.1446404348367546  0.2272742513576018  0.9889181634986011   T   T   T
  0.2273542521258585  0.2678623474555898  0.9914834873436382   T   T   T
  0.2688537349895423  0.2263045362270719  0.9909871851463590   T   T   T
  0.3516063633515607  0.2674366847645198  0.9958500197425568   T   T   T
  0.3947353892667327  0.2273532298930726  0.9969697852539667   T   T   T
  0.4779331695677365  0.2706813638428813  0.0021687139297971   T   T   T
  0.5203943231966084  0.2295744763050923  0.0019994789817863   T   T   T
  0.6036193390500808  0.2722954318114505  0.0043171060549589   T   T   T
  0.6454662021122582  0.2301227842758564  0.0020047565239882   T   T   T
  0.7287561462848300  0.2712457110034167  0.0015683469456302   T   T   T
  0.7705399042792773  0.2293555111137936  0.9983727295221430   T   T   T
  0.8538549656844793  0.2706738920674936  0.9971919099919846   T   T   T
  0.8955570223562572  0.2288952084828959  0.9938378152422855   T   T   T
  0.9788170875995702  0.2701830675700498  0.9934212488729470   T   T   T
  0.0206215165310752  0.3533999021944434  0.9963653720455548   T   T   T
  0.1039612425580226  0.3946235890085301  0.9975429615220850   T   T   T
  0.1450858151664010  0.3525016438476092  0.9958381119104351   T   T   T
  0.2279068713105333  0.3932281646943752 -0.0003862962379089   T   T   T
  0.2683311336362135  0.3505496336136462  0.9977713411334008   T   T   T
  0.3499383749505700  0.3909687821073289  0.0054926563657430   T   T   T
  0.3920635245582432  0.3490203709329965  0.0034347764764047   T   T   T
  0.5167946465869970  0.3542201514454603  0.0088260667993756   T   T   T
  0.6016288396708791  0.3988810461824217  0.0118679746859926   T   T   T
  0.6440511514526699  0.3562428101698112  0.0076074874659754   T   T   T
  0.7279945201600475  0.3965044682582865  0.0056366123637205   T   T   T
  0.7699843754811148  0.3545430622338699  0.0029986880714227   T   T   T
  0.8536736572608028  0.3957105723762659  0.0011700101199130   T   T   T
  0.8955037995743526  0.3539348576606485  0.9989958007759132   T   T   T
  0.9790319046536284  0.3952275785682196  0.9983906388485002   T   T   T
  0.0213847619740949  0.4784457447909007 -0.0004248484613726   T   T   T
  0.1050291973250790  0.5197147649783397  0.0003680319758210   T   T   T
  0.1466060728653381  0.4778225801477120  0.0004336591492476   T   T   T
  0.2302332728775047  0.5189193449060161  0.0035385240020162   T   T   T
  0.2712613042590424  0.4763276176015585  0.0049513765442933   T   T   T
  0.3545553453434000  0.5155063490196934  0.0124559418853066   T   T   T
  0.6465890101586560  0.4837966813298722  0.0138289344197014   T   T   T
  0.7300905971102281  0.5224907935559374  0.0062491701478254   T   T   T
  0.7708407208745441  0.4797636027749065  0.0042549681811004   T   T   T
  0.8545269518653409  0.5208505154686611  0.0011957700469090   T   T   T
  0.8960924523121429  0.4789515472092656  0.0007963877374652   T   T   T
  0.9797317489923992  0.5202198340292565 -0.0001992674161135   T   T   T
  0.0221693344328795  0.6034858008333787  0.9988626256624084   T   T   T
  0.1056380541966076  0.6448267547983398  0.9993750679539590   T   T   T
  0.1473553151841442  0.6029914034027617  0.0010692656908241   T   T   T
  0.2309167197944231  0.6441924133325551  0.0028651902967766   T   T   T
  0.2726649703124872  0.6021320016814150  0.0051845657789735   T   T   T
  0.3564238891872628  0.6425656990451714  0.0075991064501390   T   T   T
  0.3984804222701678  0.6002932470586437  0.0123731370124773   T   T   T
  0.4831214237776534  0.6441297348412454  0.0114034060062366   T   T   T
  0.5290183010639282  0.6074856986071957  0.0189342312854171   T   T   T
  0.6108075560578792  0.6500696016730299  0.0086743492200565   T   T   T
  0.6534274066649687  0.6090422962775131  0.0106267657517791   T   T   T
  0.7341906803794535  0.6488301670627693  0.0010503320968234   T   T   T
  0.7739654727901727  0.6056624692674825  0.0017024126184447   T   T   T
  0.8565936646491457  0.6463806027656566  0.9972345393899718   T   T   T
  0.8974288293801240  0.6040923665117580  0.9984960445136661   T   T   T
  0.9807404745347524  0.6453740888301103  0.9971676922602287   T   T   T
  0.0225117436185578  0.7286234461879310  0.9944324862864904   T   T   T
  0.1057259581878762  0.7699442960372790  0.9949291649399769   T   T   T
  0.1473433059346496  0.7280971287636956  0.9979958770372689   T   T   T
  0.2306942249645968  0.7694647553978314  0.9991701938786818   T   T   T
  0.2723945176124163  0.7275687745175591  0.0019259926565724   T   T   T
  0.3557862852420040  0.7687971852700910  0.0023113379191554   T   T   T
  0.3975688185766272  0.7267014432194321  0.0044678518138007   T   T   T
  0.4809004883614040  0.7692590196325098  0.0020501963198559   T   T   T
  0.5230713209630887  0.7277814005009248  0.0031423508996529   T   T   T
  0.6064780203041301  0.7711471943365860  0.9983313043185348   T   T   T
  0.6501371128841867  0.7315447468479581  0.9988030789382329   T   T   T
  0.7327547876410034  0.7728642090646271  0.9929258494852387   T   T   T
  0.7745164059981496  0.7314704705414057  0.9937829967697457   T   T   T
  0.8570174698264059  0.7719013148092632  0.9902296694193813   T   T   T
  0.8981594989471119  0.7296094542115978  0.9925969836177895   T   T   T
  0.9810535420298555  0.7705976194269704  0.9914338054649714   T   T   T
  0.0223929760003460  0.8537773443104935  0.9884766181475889   T   T   T
  0.1054573071790366  0.8949351042514763  0.9893487204337360   T   T   T
  0.1471424365957786  0.8531779725105850  0.9926977287209658   T   T   T
  0.2303463115294169  0.8946219384431732  0.9942230141562608   T   T   T
  0.2720861881019644  0.8528655752712350  0.9973699987911364   T   T   T
  0.3553224453777967  0.8944822033718409  0.9983194694246420   T   T   T
  0.3970165326001259  0.8525106634985472  0.0001014123341448   T   T   T
  0.4802341733929236  0.8947534466953809  0.9991226030346353   T   T   T
  0.5219788136818426  0.8529684366116554  0.9989114210408558   T   T   T
  0.6052367399689424  0.8955493554356323  0.9956575660417504   T   T   T
  0.6472375958133242  0.8542409945398526  0.9941883675259756   T   T   T
  0.7305016259127739  0.8962979221805950  0.9902011497170988   T   T   T
  0.7730842843337759  0.8554263142196135  0.9888894584559905   T   T   T
  0.8559879890141765  0.8964399447092313  0.9862733212395670   T   T   T
  0.8978744356965751  0.8547808203252775  0.9867843800340897   T   T   T
  0.9808034133899581  0.8956705825855901  0.9861258286844495   T   T   T
  0.4615086259993932  0.4696958758864423  0.1446564028644956   T   T   T
  0.5016863336849328  0.5533732928352010  0.1404315158767109   T   T   T
  0.5812347337791564  0.6040663364914898  0.1716379568702386   T   T   T
  0.4719103805655929  0.3897975142382338  0.0118153749635720   T   T   T
  0.3906970763140448  0.4705803155695088  0.0175367573577267   T   T   T
  0.6120416992187410  0.5294057767612169  0.0220434622662805   T   T   T
  0.4992404127480228  0.4990897772372019  0.0438274781760928   T   T   T
 
  0.00000000E+00  0.00000000E+00  0.00000000E+00
  0.00000000E+00  0.00000000E+00  0.00000000E+00
  0.00000000E+00  0.00000000E+00  0.00000000E+00
  0.00000000E+00  0.00000000E+00  0.00000000E+00
  0.00000000E+00  0.00000000E+00  0.00000000E+00
  0.00000000E+00  0.00000000E+00  0.00000000E+00
  0.00000000E+00  0.00000000E+00  0.00000000E+00
  0.00000000E+00  0.00000000E+00  0.00000000E+00
  0.00000000E+00  0.00000000E+00  0.00000000E+00
  0.00000000E+00  0.00000000E+00  0.00000000E+00
  0.00000000E+00  0.00000000E+00  0.00000000E+00
  0.00000000E+00  0.00000000E+00  0.00000000E+00
  0.00000000E+00  0.00000000E+00  0.00000000E+00
  0.00000000E+00  0.00000000E+00  0.00000000E+00
  0.00000000E+00  0.00000000E+00  0.00000000E+00
  0.00000000E+00  0.00000000E+00  0.00000000E+00
  0.00000000E+00  0.00000000E+00  0.00000000E+00
  0.00000000E+00  0.00000000E+00  0.00000000E+00
  0.00000000E+00  0.00000000E+00  0.00000000E+00
  0.00000000E+00  0.00000000E+00  0.00000000E+00
  0.00000000E+00  0.00000000E+00  0.00000000E+00
  0.00000000E+00  0.00000000E+00  0.00000000E+00
  0.00000000E+00  0.00000000E+00  0.00000000E+00
  0.00000000E+00  0.00000000E+00  0.00000000E+00
  0.00000000E+00  0.00000000E+00  0.00000000E+00
  0.00000000E+00  0.00000000E+00  0.00000000E+00
  0.00000000E+00  0.00000000E+00  0.00000000E+00
  0.00000000E+00  0.00000000E+00  0.00000000E+00
  0.00000000E+00  0.00000000E+00  0.00000000E+00
  0.00000000E+00  0.00000000E+00  0.00000000E+00
  0.00000000E+00  0.00000000E+00  0.00000000E+00
  0.00000000E+00  0.00000000E+00  0.00000000E+00
  0.00000000E+00  0.00000000E+00  0.00000000E+00
  0.00000000E+00  0.00000000E+00  0.00000000E+00
  0.00000000E+00  0.00000000E+00  0.00000000E+00
  0.00000000E+00  0.00000000E+00  0.00000000E+00
  0.00000000E+00  0.00000000E+00  0.00000000E+00
  0.00000000E+00  0.00000000E+00  0.00000000E+00
  0.00000000E+00  0.00000000E+00  0.00000000E+00
  0.00000000E+00  0.00000000E+00  0.00000000E+00
  0.00000000E+00  0.00000000E+00  0.00000000E+00
  0.00000000E+00  0.00000000E+00  0.00000000E+00
  0.00000000E+00  0.00000000E+00  0.00000000E+00
  0.00000000E+00  0.00000000E+00  0.00000000E+00
  0.00000000E+00  0.00000000E+00  0.00000000E+00
  0.00000000E+00  0.00000000E+00  0.00000000E+00
  0.00000000E+00  0.00000000E+00  0.00000000E+00
  0.00000000E+00  0.00000000E+00  0.00000000E+00
  0.00000000E+00  0.00000000E+00  0.00000000E+00
  0.00000000E+00  0.00000000E+00  0.00000000E+00
  0.00000000E+00  0.00000000E+00  0.00000000E+00
  0.00000000E+00  0.00000000E+00  0.00000000E+00
  0.00000000E+00  0.00000000E+00  0.00000000E+00
  0.00000000E+00  0.00000000E+00  0.00000000E+00
  0.00000000E+00  0.00000000E+00  0.00000000E+00
  0.00000000E+00  0.00000000E+00  0.00000000E+00
  0.00000000E+00  0.00000000E+00  0.00000000E+00
  0.00000000E+00  0.00000000E+00  0.00000000E+00
  0.00000000E+00  0.00000000E+00  0.00000000E+00
  0.00000000E+00  0.00000000E+00  0.00000000E+00
  0.00000000E+00  0.00000000E+00  0.00000000E+00
  0.00000000E+00  0.00000000E+00  0.00000000E+00
  0.00000000E+00  0.00000000E+00  0.00000000E+00
  0.00000000E+00  0.00000000E+00  0.00000000E+00
  0.00000000E+00  0.00000000E+00  0.00000000E+00
  0.00000000E+00  0.00000000E+00  0.00000000E+00
  0.00000000E+00  0.00000000E+00  0.00000000E+00
  0.00000000E+00  0.00000000E+00  0.00000000E+00
  0.00000000E+00  0.00000000E+00  0.00000000E+00
  0.00000000E+00  0.00000000E+00  0.00000000E+00
  0.00000000E+00  0.00000000E+00  0.00000000E+00
  0.00000000E+00  0.00000000E+00  0.00000000E+00
  0.00000000E+00  0.00000000E+00  0.00000000E+00
  0.00000000E+00  0.00000000E+00  0.00000000E+00
  0.00000000E+00  0.00000000E+00  0.00000000E+00
  0.00000000E+00  0.00000000E+00  0.00000000E+00
  0.00000000E+00  0.00000000E+00  0.00000000E+00
  0.00000000E+00  0.00000000E+00  0.00000000E+00
  0.00000000E+00  0.00000000E+00  0.00000000E+00
  0.00000000E+00  0.00000000E+00  0.00000000E+00
  0.00000000E+00  0.00000000E+00  0.00000000E+00
  0.00000000E+00  0.00000000E+00  0.00000000E+00
  0.00000000E+00  0.00000000E+00  0.00000000E+00
  0.00000000E+00  0.00000000E+00  0.00000000E+00
  0.00000000E+00  0.00000000E+00  0.00000000E+00
  0.00000000E+00  0.00000000E+00  0.00000000E+00
  0.00000000E+00  0.00000000E+00  0.00000000E+00
  0.00000000E+00  0.00000000E+00  0.00000000E+00
  0.00000000E+00  0.00000000E+00  0.00000000E+00
  0.00000000E+00  0.00000000E+00  0.00000000E+00
  0.00000000E+00  0.00000000E+00  0.00000000E+00
  0.00000000E+00  0.00000000E+00  0.00000000E+00
  0.00000000E+00  0.00000000E+00  0.00000000E+00
  0.00000000E+00  0.00000000E+00  0.00000000E+00
  0.00000000E+00  0.00000000E+00  0.00000000E+00
  0.00000000E+00  0.00000000E+00  0.00000000E+00
  0.00000000E+00  0.00000000E+00  0.00000000E+00
  0.00000000E+00  0.00000000E+00  0.00000000E+00
  0.00000000E+00  0.00000000E+00  0.00000000E+00
  0.00000000E+00  0.00000000E+00  0.00000000E+00
  0.00000000E+00  0.00000000E+00  0.00000000E+00
  0.00000000E+00  0.00000000E+00  0.00000000E+00
  0.00000000E+00  0.00000000E+00  0.00000000E+00
  0.00000000E+00  0.00000000E+00  0.00000000E+00
  0.00000000E+00  0.00000000E+00  0.00000000E+00
  0.00000000E+00  0.00000000E+00  0.00000000E+00
  0.00000000E+00  0.00000000E+00  0.00000000E+00
  0.00000000E+00  0.00000000E+00  0.00000000E+00
  0.00000000E+00  0.00000000E+00  0.00000000E+00
  0.00000000E+00  0.00000000E+00  0.00000000E+00
  0.00000000E+00  0.00000000E+00  0.00000000E+00
  0.00000000E+00  0.00000000E+00  0.00000000E+00
  0.00000000E+00  0.00000000E+00  0.00000000E+00
  0.00000000E+00  0.00000000E+00  0.00000000E+00
  0.00000000E+00  0.00000000E+00  0.00000000E+00
  0.00000000E+00  0.00000000E+00  0.00000000E+00
  0.00000000E+00  0.00000000E+00  0.00000000E+00
  0.00000000E+00  0.00000000E+00  0.00000000E+00
  0.00000000E+00  0.00000000E+00  0.00000000E+00
  0.00000000E+00  0.00000000E+00  0.00000000E+00
  0.00000000E+00  0.00000000E+00  0.00000000E+00
  0.00000000E+00  0.00000000E+00  0.00000000E+00
  0.00000000E+00  0.00000000E+00  0.00000000E+00
  0.00000000E+00  0.00000000E+00  0.00000000E+00
  0.00000000E+00  0.00000000E+00  0.00000000E+00
  0.00000000E+00  0.00000000E+00  0.00000000E+00
  0.00000000E+00  0.00000000E+00  0.00000000E+00
  0.00000000E+00  0.00000000E+00  0.00000000E+00
  0.00000000E+00  0.00000000E+00  0.00000000E+00
  0.00000000E+00  0.00000000E+00  0.00000000E+00
  0.00000000E+00  0.00000000E+00  0.00000000E+00
  0.00000000E+00  0.00000000E+00  0.00000000E+00
  0.00000000E+00  0.00000000E+00  0.00000000E+00
  0.00000000E+00  0.00000000E+00  0.00000000E+00
  0.00000000E+00  0.00000000E+00  0.00000000E+00
  0.00000000E+00  0.00000000E+00  0.00000000E+00
