RuN6                                    
   1.00000000000000     
    17.0990259999999985   -9.8721239999999995    0.0000000000000000
     0.0000000000000000   19.7442530000000005    0.0000000000000000
     0.0000000000000000    0.0000000000000000   20.0000000000000000
   H    C    N    Ru
     6   123     6     1
Selective dynamics
Direct
  0.4423200942831365  0.4067101369056876  0.1347965617385055   T   T   T
  0.5498829085565466  0.4587626258851845  0.1392627764850095   T   T   T
  0.4435486289766469  0.5328268560986691  0.1377019076126910   T   T   T
  0.6250684541186807  0.6089803839433573  0.1393980192081031   T   T   T
  0.5687551817174656  0.6098730594676565  0.2083760250818790   T   T   T
  0.5734193568818167  0.6615380499983649  0.1343997366705074   T   T   T
  0.0212396578928321  0.9790272169977750  0.9986395621277062   T   T   T
  0.1042057892314503  0.0199365726105982  0.9986723556705511   T   T   T
  0.1462036772786504  0.9783831343722755  0.9989980193544121   T   T   T
  0.2293448440685835  0.0197872817984324  0.9986843534401082   T   T   T
  0.2713075512796889  0.9782564893010703  0.9993607558946058   T   T   T
  0.3545620746328159  0.0201993052410216  0.9992244211567811   T   T   T
  0.3963217824057956  0.9783934435312249  0.9998502409374155   T   T   T
  0.4795313540603036  0.0208615791517172  0.9998192722195559   T   T   T
  0.5211691779568352  0.9789626155018778  0.9999001166770674   T   T   T
  0.6043615965739711  0.0214216428528901  0.9998302379674375   T   T   T
  0.6461208754921336  0.9795916238470301  0.9992066007672313   T   T   T
  0.7293888778904606  0.0215460955036712  0.9992170879579844   T   T   T
  0.7713329352765013  0.9800084376725668  0.9982676192555470   T   T   T
  0.8544689536162785  0.0214043217491256  0.9987082205422061   T   T   T
  0.8964748532930727  0.9798454568594376  0.9981525735363382   T   T   T
  0.9794341898470628  0.0207463134474390  0.9986898549323480   T   T   T
  0.0203050968218562  0.1037057315548838  0.9988107472438429   T   T   T
  0.1031246200083702  0.1444989046038062  0.9979656200696940   T   T   T
  0.1449661016109545  0.1027591994825992  0.9978945544941011   T   T   T
  0.2279030432871582  0.1437564409691736  0.9970924705162868   T   T   T
  0.2703178357996139  0.1028914797707688  0.9976068614100492   T   T   T
  0.3536874813326045  0.1449168032990363  0.9975660131373177   T   T   T
  0.3956489637604127  0.1035669792506083  0.9985916251142303   T   T   T
  0.4789399388509918  0.1463886390026217  0.9992777011354890   T   T   T
  0.5207626756808645  0.1045680950365632  0.9998167078079147   T   T   T
  0.6038505513304966  0.1471188340532476  0.0002665500908663   T   T   T
  0.6455652314377516  0.1050341887944620  0.0002499481727042   T   T   T
  0.7288503328927468  0.1467142878886233  0.0004809015740382   T   T   T
  0.7705870869483418  0.1048240557824183  0.0000859617035825   T   T   T
  0.8538339312609767  0.1462798313275611  0.0001040255631550   T   T   T
  0.8955836335059340  0.1045126072604855  0.9995562100247837   T   T   T
  0.9786943559501019  0.1456492990300277  0.9992586300505177   T   T   T
  0.0200295493865339  0.2287626914990932  0.9991635100688985   T   T   T
  0.1030910060338944  0.2697445142830664  0.9983259438431842   T   T   T
  0.1440061427453871  0.2274001090076707  0.9973780334259998   T   T   T
  0.2266991877705725  0.2679098225743630  0.9967125600498487   T   T   T
  0.2683480687497697  0.2264668658864850  0.9964120991397748   T   T   T
  0.3511032201316120  0.2677415437723189  0.9967283209167213   T   T   T
  0.3944840684419658  0.2279818189032256  0.9972580181661241   T   T   T
  0.4781400776489674  0.2714242108187265  0.9987635261970242   T   T   T
  0.5197924376091022  0.2298035474478679  0.9995757803746808   T   T   T
  0.6030570409448511  0.2733858792191591  0.0007420913478324   T   T   T
  0.6451435761925752  0.2310964053170927  0.0006259901368411   T   T   T
  0.7282521661315114  0.2720258596686452  0.0007221006204675   T   T   T
  0.7701760591549425  0.2299981861274120  0.0006840130068633   T   T   T
  0.8534717989853271  0.2713460547865315  0.0004155581652116   T   T   T
  0.8952856648130310  0.2295392084499229  0.0002450638069598   T   T   T
  0.9785358799640478  0.2707433784249855  0.9997096200535533   T   T   T
  0.0204109357388558  0.3539921073931397  0.9994922343823256   T   T   T
  0.1037822126618205  0.3951207306667357  0.9991657930939302   T   T   T
  0.1450182312265493  0.3530895823200090  0.9987277908912140   T   T   T
  0.2280130247037355  0.3938886554553913  0.9994010079391200   T   T   T
  0.2677474676116005  0.3505659396241536  0.9985947527922741   T   T   T
  0.3496169821885816  0.3914034801701264  0.0023354339741833   T   T   T
  0.3918772028799079  0.3497590682908398  0.9994353514738094   T   T   T
  0.5166941743260670  0.3547692327510504  0.0010957826044524   T   T   T
  0.6436217250966160  0.3567969005161870  0.0014160020209310   T   T   T
  0.7269785569637466  0.3972641758570628  0.0001985077891634   T   T   T
  0.7692108041048361  0.3551107350679748  0.0002459825595630   T   T   T
  0.8531305136709746  0.3963928483499162  0.9996980558120355   T   T   T
  0.8951144643180196  0.3546286192336356  0.9999571850458147   T   T   T
  0.9787280841368691  0.3958306629565102  0.9996482801649326   T   T   T
  0.0212552479014641  0.4790492246329680  0.9995929312761654   T   T   T
  0.1049122982240323  0.5202926431959595  0.9998805969237214   T   T   T
  0.1466201579076072  0.4784078458965803  0.9995463517525277   T   T   T
  0.2300726638300814  0.5192717617549213  0.0000776877220096   T   T   T
  0.2714429752637685  0.4774837756918121  0.0005291489089709   T   T   T
  0.3547867079196446  0.5160090353713350  0.0049536798768201   T   T   T
  0.6459503400263711  0.4838458875743624  0.0030437652625843   T   T   T
  0.7292242966180762  0.5223082685614260  0.9983347858273487   T   T   T
  0.7706054002907951  0.4805154944754366  0.9984154423024514   T   T   T
  0.8540580922063857  0.5213718197729795  0.9981628405357600   T   T   T
  0.8957581218032663  0.4794808388913667  0.9990252431610741   T   T   T
  0.9794260239890938  0.5207260897635148  0.9993044713698791   T   T   T
  0.0219302778784642  0.6039364029940518  0.9994199492055498   T   T   T
  0.1055471338815805  0.6451477690846767  0.0002887155855025   T   T   T
  0.1475415000762079  0.6033957170645224  0.0005227664056501   T   T   T
  0.2314691050601067  0.6446942232176426  0.0012769836828860   T   T   T
  0.2737190984443090  0.6025559780358809  0.0014664593562230   T   T   T
  0.3570635480690376  0.6430246297982123  0.0024601215373890   T   T   T
  0.4840043223904295  0.6451193492715273  0.0011115474517006   T   T   T
  0.6088237600881352  0.6500583289130542  0.9970368807166308   T   T   T
  0.6510752052346584  0.6084355793478365  0.9991556754473135   T   T   T
  0.7329286827945097  0.6492234589502385  0.9954678712415946   T   T   T
  0.7726634825632427  0.6059181268695421  0.9968106502657068   T   T   T
  0.8556493443547102  0.6467031858341805  0.9966632697368990   T   T   T
  0.8968940053668835  0.6046681937922028  0.9977243724230814   T   T   T
  0.9802433264795201  0.6457778170593264  0.9986825711461431   T   T   T
  0.0221417114241400  0.7290448374928835  0.9989834059240307   T   T   T
  0.1053936817584952  0.7702533158213114  0.0000763229906111   T   T   T
  0.1472074235684085  0.7284441042212596  0.0006724531570733   T   T   T
  0.2304884281750990  0.7697872681494677  0.0011835125909909   T   T   T
  0.2724242107386279  0.7277787860005165  0.0015259060576323   T   T   T
  0.3555368061215506  0.7687325288053513  0.0013504783463437   T   T   T
  0.3976387853836888  0.7264568964765135  0.0015072193760523   T   T   T
  0.4808738205115684  0.7700372346621916  0.0000133667896670   T   T   T
  0.5225200755060611  0.7283634331903480  0.9987206548628242   T   T   T
  0.6062271810831967  0.7718433010991680  0.9964501032560175   T   T   T
  0.6495819845168742  0.7320845353528040  0.9946463706049233   T   T   T
  0.7323486268620067  0.7733505088169997  0.9941340385410004   T   T   T
  0.7740119103692479  0.7319048133995081  0.9940086062811747   T   T   T
  0.8566951521256377  0.7724012259166464  0.9952247866205450   T   T   T
  0.8975915808172107  0.7300435980650812  0.9964089289580721   T   T   T
  0.9806513052225569  0.7710131247980884  0.9979697318980846   T   T   T
  0.0219915210880820  0.8541260741736769  0.9985102723968496   T   T   T
  0.1050899344035866  0.8952672321984023  0.9993864516679080   T   T   T
  0.1468442066625146  0.8535068158320932  0.0000432655219337   T   T   T
  0.2300959163170934  0.8949643754088922  0.0002087619542587   T   T   T
  0.2718391889211672  0.8530962926200720  0.0007721536638683   T   T   T
  0.3551170286315894  0.8947851460257329  0.0005077792092949   T   T   T
  0.3968407458413685  0.8527031196348949  0.0007205532360130   T   T   T
  0.4799227452579313  0.8952466728403372  0.0001458260386853   T   T   T
  0.5217449668793427  0.8534382629060874  0.9995836522242166   T   T   T
  0.6050458053704776  0.8962599429479982  0.9986087951957747   T   T   T
  0.6469890946516025  0.8548747783343944  0.9970982841447795   T   T   T
  0.7303623728921840  0.8969008053220336  0.9968018910080915   T   T   T
  0.7727867198523541  0.8560524228191781  0.9955972982940576   T   T   T
  0.8557365349899945  0.8970405387454692  0.9966144948345192   T   T   T
  0.8975720181422236  0.8553010655079685  0.9964528431759827   T   T   T
  0.9803782358654772  0.8960757913493734  0.9979949113330031   T   T   T
  0.4973047147691532  0.4610973271441924  0.1255288506767128   T   T   T
  0.4991678984802227  0.5345499099432202  0.1282453363304991   T   T   T
  0.5705030014750684  0.6077549900633155  0.1532441988409249   T   T   T
  0.4730174488967521  0.3906991390215439  0.0022166982165783   T   T   T
  0.6009807833114192  0.3996324975283654  0.0030709127326204   T   T   T
  0.3900403086776205  0.4720523418972699  0.0108244404354811   T   T   T
  0.6107443080646856  0.5279030713995326  0.0087890287151613   T   T   T
  0.3997759897723853  0.6002571287559670  0.0040552715362290   T   T   T
  0.5277348801576393  0.6091147027885798  0.0014795647356798   T   T   T
  0.5005928076393034  0.5001247420243519  0.0253775612979811   T   T   T
 
  0.00000000E+00  0.00000000E+00  0.00000000E+00
  0.00000000E+00  0.00000000E+00  0.00000000E+00
  0.00000000E+00  0.00000000E+00  0.00000000E+00
  0.00000000E+00  0.00000000E+00  0.00000000E+00
  0.00000000E+00  0.00000000E+00  0.00000000E+00
  0.00000000E+00  0.00000000E+00  0.00000000E+00
  0.00000000E+00  0.00000000E+00  0.00000000E+00
  0.00000000E+00  0.00000000E+00  0.00000000E+00
  0.00000000E+00  0.00000000E+00  0.00000000E+00
  0.00000000E+00  0.00000000E+00  0.00000000E+00
  0.00000000E+00  0.00000000E+00  0.00000000E+00
  0.00000000E+00  0.00000000E+00  0.00000000E+00
  0.00000000E+00  0.00000000E+00  0.00000000E+00
  0.00000000E+00  0.00000000E+00  0.00000000E+00
  0.00000000E+00  0.00000000E+00  0.00000000E+00
  0.00000000E+00  0.00000000E+00  0.00000000E+00
  0.00000000E+00  0.00000000E+00  0.00000000E+00
  0.00000000E+00  0.00000000E+00  0.00000000E+00
  0.00000000E+00  0.00000000E+00  0.00000000E+00
  0.00000000E+00  0.00000000E+00  0.00000000E+00
  0.00000000E+00  0.00000000E+00  0.00000000E+00
  0.00000000E+00  0.00000000E+00  0.00000000E+00
  0.00000000E+00  0.00000000E+00  0.00000000E+00
  0.00000000E+00  0.00000000E+00  0.00000000E+00
  0.00000000E+00  0.00000000E+00  0.00000000E+00
  0.00000000E+00  0.00000000E+00  0.00000000E+00
  0.00000000E+00  0.00000000E+00  0.00000000E+00
  0.00000000E+00  0.00000000E+00  0.00000000E+00
  0.00000000E+00  0.00000000E+00  0.00000000E+00
  0.00000000E+00  0.00000000E+00  0.00000000E+00
  0.00000000E+00  0.00000000E+00  0.00000000E+00
  0.00000000E+00  0.00000000E+00  0.00000000E+00
  0.00000000E+00  0.00000000E+00  0.00000000E+00
  0.00000000E+00  0.00000000E+00  0.00000000E+00
  0.00000000E+00  0.00000000E+00  0.00000000E+00
  0.00000000E+00  0.00000000E+00  0.00000000E+00
  0.00000000E+00  0.00000000E+00  0.00000000E+00
  0.00000000E+00  0.00000000E+00  0.00000000E+00
  0.00000000E+00  0.00000000E+00  0.00000000E+00
  0.00000000E+00  0.00000000E+00  0.00000000E+00
  0.00000000E+00  0.00000000E+00  0.00000000E+00
  0.00000000E+00  0.00000000E+00  0.00000000E+00
  0.00000000E+00  0.00000000E+00  0.00000000E+00
  0.00000000E+00  0.00000000E+00  0.00000000E+00
  0.00000000E+00  0.00000000E+00  0.00000000E+00
  0.00000000E+00  0.00000000E+00  0.00000000E+00
  0.00000000E+00  0.00000000E+00  0.00000000E+00
  0.00000000E+00  0.00000000E+00  0.00000000E+00
  0.00000000E+00  0.00000000E+00  0.00000000E+00
  0.00000000E+00  0.00000000E+00  0.00000000E+00
  0.00000000E+00  0.00000000E+00  0.00000000E+00
  0.00000000E+00  0.00000000E+00  0.00000000E+00
  0.00000000E+00  0.00000000E+00  0.00000000E+00
  0.00000000E+00  0.00000000E+00  0.00000000E+00
  0.00000000E+00  0.00000000E+00  0.00000000E+00
  0.00000000E+00  0.00000000E+00  0.00000000E+00
  0.00000000E+00  0.00000000E+00  0.00000000E+00
  0.00000000E+00  0.00000000E+00  0.00000000E+00
  0.00000000E+00  0.00000000E+00  0.00000000E+00
  0.00000000E+00  0.00000000E+00  0.00000000E+00
  0.00000000E+00  0.00000000E+00  0.00000000E+00
  0.00000000E+00  0.00000000E+00  0.00000000E+00
  0.00000000E+00  0.00000000E+00  0.00000000E+00
  0.00000000E+00  0.00000000E+00  0.00000000E+00
  0.00000000E+00  0.00000000E+00  0.00000000E+00
  0.00000000E+00  0.00000000E+00  0.00000000E+00
  0.00000000E+00  0.00000000E+00  0.00000000E+00
  0.00000000E+00  0.00000000E+00  0.00000000E+00
  0.00000000E+00  0.00000000E+00  0.00000000E+00
  0.00000000E+00  0.00000000E+00  0.00000000E+00
  0.00000000E+00  0.00000000E+00  0.00000000E+00
  0.00000000E+00  0.00000000E+00  0.00000000E+00
  0.00000000E+00  0.00000000E+00  0.00000000E+00
  0.00000000E+00  0.00000000E+00  0.00000000E+00
  0.00000000E+00  0.00000000E+00  0.00000000E+00
  0.00000000E+00  0.00000000E+00  0.00000000E+00
  0.00000000E+00  0.00000000E+00  0.00000000E+00
  0.00000000E+00  0.00000000E+00  0.00000000E+00
  0.00000000E+00  0.00000000E+00  0.00000000E+00
  0.00000000E+00  0.00000000E+00  0.00000000E+00
  0.00000000E+00  0.00000000E+00  0.00000000E+00
  0.00000000E+00  0.00000000E+00  0.00000000E+00
  0.00000000E+00  0.00000000E+00  0.00000000E+00
  0.00000000E+00  0.00000000E+00  0.00000000E+00
  0.00000000E+00  0.00000000E+00  0.00000000E+00
  0.00000000E+00  0.00000000E+00  0.00000000E+00
  0.00000000E+00  0.00000000E+00  0.00000000E+00
  0.00000000E+00  0.00000000E+00  0.00000000E+00
  0.00000000E+00  0.00000000E+00  0.00000000E+00
  0.00000000E+00  0.00000000E+00  0.00000000E+00
  0.00000000E+00  0.00000000E+00  0.00000000E+00
  0.00000000E+00  0.00000000E+00  0.00000000E+00
  0.00000000E+00  0.00000000E+00  0.00000000E+00
  0.00000000E+00  0.00000000E+00  0.00000000E+00
  0.00000000E+00  0.00000000E+00  0.00000000E+00
  0.00000000E+00  0.00000000E+00  0.00000000E+00
  0.00000000E+00  0.00000000E+00  0.00000000E+00
  0.00000000E+00  0.00000000E+00  0.00000000E+00
  0.00000000E+00  0.00000000E+00  0.00000000E+00
  0.00000000E+00  0.00000000E+00  0.00000000E+00
  0.00000000E+00  0.00000000E+00  0.00000000E+00
  0.00000000E+00  0.00000000E+00  0.00000000E+00
  0.00000000E+00  0.00000000E+00  0.00000000E+00
  0.00000000E+00  0.00000000E+00  0.00000000E+00
  0.00000000E+00  0.00000000E+00  0.00000000E+00
  0.00000000E+00  0.00000000E+00  0.00000000E+00
  0.00000000E+00  0.00000000E+00  0.00000000E+00
  0.00000000E+00  0.00000000E+00  0.00000000E+00
  0.00000000E+00  0.00000000E+00  0.00000000E+00
  0.00000000E+00  0.00000000E+00  0.00000000E+00
  0.00000000E+00  0.00000000E+00  0.00000000E+00
  0.00000000E+00  0.00000000E+00  0.00000000E+00
  0.00000000E+00  0.00000000E+00  0.00000000E+00
  0.00000000E+00  0.00000000E+00  0.00000000E+00
  0.00000000E+00  0.00000000E+00  0.00000000E+00
  0.00000000E+00  0.00000000E+00  0.00000000E+00
  0.00000000E+00  0.00000000E+00  0.00000000E+00
  0.00000000E+00  0.00000000E+00  0.00000000E+00
  0.00000000E+00  0.00000000E+00  0.00000000E+00
  0.00000000E+00  0.00000000E+00  0.00000000E+00
  0.00000000E+00  0.00000000E+00  0.00000000E+00
  0.00000000E+00  0.00000000E+00  0.00000000E+00
  0.00000000E+00  0.00000000E+00  0.00000000E+00
  0.00000000E+00  0.00000000E+00  0.00000000E+00
  0.00000000E+00  0.00000000E+00  0.00000000E+00
  0.00000000E+00  0.00000000E+00  0.00000000E+00
  0.00000000E+00  0.00000000E+00  0.00000000E+00
  0.00000000E+00  0.00000000E+00  0.00000000E+00
  0.00000000E+00  0.00000000E+00  0.00000000E+00
  0.00000000E+00  0.00000000E+00  0.00000000E+00
  0.00000000E+00  0.00000000E+00  0.00000000E+00
  0.00000000E+00  0.00000000E+00  0.00000000E+00
  0.00000000E+00  0.00000000E+00  0.00000000E+00
  0.00000000E+00  0.00000000E+00  0.00000000E+00
  0.00000000E+00  0.00000000E+00  0.00000000E+00
  0.00000000E+00  0.00000000E+00  0.00000000E+00
