 H  C  N  C Ru                          
   1.00000000000000     
    17.0990259999999985   -9.8721239999999995    0.0000000000000000
     0.0000000000000000   19.7442530000000005    0.0000000000000000
     0.0000000000000000    0.0000000000000000   20.0000000000000000
   H    C    N    Ru
     6   128     1     1
Direct
  0.4054286415454654  0.4251821285340061  0.1611182611987824
  0.5068728336377044  0.4501734641943183  0.1796870482106251
  0.4500058701718619  0.5680137561961919  0.1481444579026714
  0.6174962670643789  0.5923945086529901  0.1686946724421577
  0.5708831844456919  0.6208618868205865  0.2294427223409120
  0.5953410658933184  0.6673361220599484  0.1497744164719438
  0.0219244047872403  0.9784088930354661  0.9816871196864888
  0.1049881565688160  0.0193472604366702  0.9823668160040094
  0.1465594274362130  0.9774325704885805  0.9844771613429402
  0.2297545721488422  0.0187227524443362  0.9872303105840410
  0.2716254384957457  0.9772040280635039  0.9907070556797768
  0.3548549945541810  0.0188529745921718  0.9941327993832126
  0.3967672376462997  0.9775613216159108  0.9967184404649122
  0.4800844993463066  0.0199466874621517  0.9984296842480936
  0.5220092082623938  0.9786301896531580  0.9985289206814020
  0.6053290479102234  0.0210318168766683  0.9970582411921565
  0.6472602303383460  0.9796984355798285  0.9947153949898671
  0.7305020965841530  0.0214919779795618  0.9915601904641723
  0.7723607353899998  0.9799895519831130  0.9883478071078543
  0.8556411292433527  0.0213794050448519  0.9853887074443184
  0.8973944843115113  0.9796334524138904  0.9831778817697208
  0.9804700063918503  0.0205987036819230  0.9818021617486056
  0.0217677575982103  0.1037440142003448  0.9831178149111035
  0.1048946389671780  0.1446957079560028  0.9840334294527909
  0.1462253314754520  0.1024866154536910  0.9834001346550143
  0.2291927551462574  0.1433538045144830  0.9865043225372545
  0.2709826450017244  0.1017018315423767  0.9884084835882370
  0.3540422455061450  0.1429156471972212  0.9935656231373849
  0.3962293423206111  0.1020719606393804  0.9956213957169626
  0.4794323045003281  0.1446660683265432 -0.0006903487268943
  0.5214532338375465  0.1034153404733239 -0.0005078184967764
  0.6047583251397376  0.1458740202768069  0.0002836718905480
  0.6467189247177906  0.1044281426357062  0.9978517466421171
  0.7300686611656085  0.1462339758780796  0.9964336848117290
  0.7719429501336066  0.1047228769048518  0.9926039907682208
  0.8552686867356519  0.1462221055095620  0.9907181685630597
  0.8970405802344320  0.1045519070794890  0.9867456722100317
  0.9803156911027392  0.1457745921776724  0.9858576027628213
  0.0220124509274062  0.2290203268122838  0.9895687984868378
  0.1053107483401626  0.2701445356566575  0.9907317445372101
  0.1463631873780868  0.2277739173806517  0.9879810293085960
  0.2292425216544313  0.2683192556119043  0.9911739929230217
  0.2701549435174451  0.2260525244158085  0.9902370899537150
  0.3528742078399728  0.2662283084666717  0.9964071651320731
  0.3950170028609013  0.2255431614658533  0.9979866986067979
  0.4778299092277250  0.2685883213471404  0.0038874323234827
  0.5205929876382501  0.2281046682742823  0.0027315919968757
  0.6037484916431101  0.2708427142297470  0.0053197828560983
  0.6459533281091101  0.2293957873558382  0.0028273709771572
  0.7293194615697597  0.2709901055394454  0.0023520844399654
  0.7713957460490856  0.2295039880727426  0.9988641635732126
  0.8548560102663234  0.2709221687617656  0.9977998349972177
  0.8967908788566628  0.2293759443704446  0.9937669900435403
  0.9802714786593471  0.2707152230849327  0.9934055244541365
  0.0221012110930524  0.3538510646661246  0.9972676456993683
  0.1057494333400317  0.3950683949129935  0.9983452417832978
  0.1475135302171360  0.3533728983336405  0.9958055633664890
  0.2310489654451202  0.3943315243306858 -0.0009178492404158
  0.2713648785615727  0.3512445735634463 -0.0027496256099454
  0.3539400855009410  0.3910209884804179  0.0041434561828302
  0.3940989253492511  0.3475096758552393  0.0054709172740747
  0.5166802194900092  0.3516724726336911  0.0119011296149608
  0.6009300261134812  0.3959130797908226  0.0114336790043483
  0.6438596815484583  0.3545448848831061  0.0080959194248299
  0.7278893710630004  0.3958173792926390  0.0062041788176002
  0.7703104524458289  0.3543331057363272  0.0039647402388576
  0.8540974212869547  0.3956098470637478  0.0026185734728099
  0.8963491285157248  0.3541189506371247  0.0003065456674813
  0.9800305136149408  0.3953778165632635  0.9999315216505434
  0.0220019387057000  0.4785367913051411  0.0013321434069230
  0.1058623450842369  0.5197745889205801  0.0018661320709047
  0.1481013150665956  0.4782546024490040  0.0016777433790622
  0.2320263051610094  0.5194181327519366  0.0042640480887119
  0.2744460427550485  0.4777020970673105  0.0046862882048625
  0.3588746756026705  0.5185235610354328  0.0105874136687318
  0.6422788083579631  0.4804272718077104  0.0094422279802424
  0.7274790404362504  0.5210242501318624  0.0048673851683456
  0.7696504184663878  0.4791982835216580  0.0048470926241468
  0.8537057234149561  0.5203487527394052  0.0023635866131321
  0.8959215713829344  0.4787920663496731  0.0024495266793902
  0.9797992018751094  0.5200317102950209  0.0014410408640736
  0.0218894164569549  0.6032368205927882  0.9997124071779907
  0.1055142296555216  0.6445239833817976  0.9996841640854276
  0.1476278243816314  0.6029808479274467  0.0018509668723884
  0.2312539859397901  0.6442679274609411  0.0031477398315259
  0.2734559899614525  0.6026558882435060  0.0056544169357196
  0.3572226826580666  0.6439613010129971  0.0082383334191204
  0.3996654300236237  0.6026792359771229  0.0128088572854056
  0.4839503782350315  0.6460211278843004  0.0140165901474374
  0.6095312819833070  0.6514188302696218  0.0079491591650625
  0.6499839009157505  0.6084737619644732  0.0052968242382168
  0.7319921397629794  0.6479254530778159 -0.0010436351412679
  0.7714952166112891  0.6043080081145037 -0.0000970366389185
  0.8549884056070958  0.6454024103512911  0.9966268590851336
  0.8963855587286614  0.6035788925126252  0.9988887010410515
  0.9800239050478156  0.6448549710368709  0.9973351135773588
  0.0218532935917433  0.7279859137648739  0.9932775316277910
  0.1053022486130114  0.7693387866692127  0.9932059792981325
  0.1471278160893181  0.7277087129128992  0.9970805997327250
  0.2306001980162311  0.7691292004790643  0.9980927354457215
  0.2725572695991010  0.7276160628407513  0.0016379246544002
  0.3560370184143692  0.7692634672493168  0.0024713240651409
  0.3981046607204910  0.7278382119114680  0.0053977217342620
  0.4814343939539945  0.7703808661135590  0.0033949914771103
  0.5238678720406099  0.7294375222218257  0.0052668472798850
  0.6069287176490624  0.7727780010940748 -0.0000853580842467
  0.6497541608627916  0.7326821795885821 -0.0008577045498605
  0.7324351688987095  0.7731262406386431  0.9925938502294235
  0.7735543412120913  0.7309656206553348  0.9933115483101892
  0.8562182864484489  0.7713969314501627  0.9894295379749308
  0.8970577748639975  0.7287181750450685  0.9916470664370757
  0.9802492856042900  0.7698152356049280  0.9898517090649660
  0.0219327712324446  0.8530832173142849  0.9858785348454380
  0.1051622590786832  0.8942627157554675  0.9861668943792316
  0.1468539031160666  0.8525133575782866  0.9900041535173694
  0.2301756995774150  0.8939635133629731  0.9917951551760542
  0.2720117178106015  0.8524439482248609  0.9957761535342650
  0.3553433114151588  0.8941836143838924  0.9974386457114689
  0.3972899512029633  0.8527451495667604  0.0000469392881503
  0.4805943651059545  0.8951096872712790  0.9995591725926276
  0.5225870403292192  0.8538362248017805  0.9997611992633846
  0.6058848378627413  0.8964828023371981  0.9963366247625421
  0.6479453594928536  0.8554891579255227  0.9949830821028605
  0.7311366099865361  0.8970351201293533  0.9898722089847698
  0.7732958309243992  0.8556967110503816  0.9882516285794432
  0.8562025129334145  0.8965418751447944  0.9846974172569511
  0.8975838570835860  0.8543981497400270  0.9851487246519200
  0.9806231623738246  0.8952617974969975  0.9834665714140753
  0.4676910143794265  0.4683449508479361  0.1575262180161149
  0.4940327697130876  0.5497807412750954  0.1497258349641944
  0.5737400678286371  0.6109913336342488  0.1754300143806325
  0.5288633293066389  0.6087404877486294  0.0221880040578180
  0.3978556426745410  0.4730871245662013  0.0137595706913876
  0.6044107645080619  0.5261973291326530  0.0107086657774350
  0.4726943790303594  0.3876005932240804  0.0183941474712827
  0.5001548002972345  0.4996665948997591  0.0538382663133904
 
  0.00000000E+00  0.00000000E+00  0.00000000E+00
  0.00000000E+00  0.00000000E+00  0.00000000E+00
  0.00000000E+00  0.00000000E+00  0.00000000E+00
  0.00000000E+00  0.00000000E+00  0.00000000E+00
  0.00000000E+00  0.00000000E+00  0.00000000E+00
  0.00000000E+00  0.00000000E+00  0.00000000E+00
  0.00000000E+00  0.00000000E+00  0.00000000E+00
  0.00000000E+00  0.00000000E+00  0.00000000E+00
  0.00000000E+00  0.00000000E+00  0.00000000E+00
  0.00000000E+00  0.00000000E+00  0.00000000E+00
  0.00000000E+00  0.00000000E+00  0.00000000E+00
  0.00000000E+00  0.00000000E+00  0.00000000E+00
  0.00000000E+00  0.00000000E+00  0.00000000E+00
  0.00000000E+00  0.00000000E+00  0.00000000E+00
  0.00000000E+00  0.00000000E+00  0.00000000E+00
  0.00000000E+00  0.00000000E+00  0.00000000E+00
  0.00000000E+00  0.00000000E+00  0.00000000E+00
  0.00000000E+00  0.00000000E+00  0.00000000E+00
  0.00000000E+00  0.00000000E+00  0.00000000E+00
  0.00000000E+00  0.00000000E+00  0.00000000E+00
  0.00000000E+00  0.00000000E+00  0.00000000E+00
  0.00000000E+00  0.00000000E+00  0.00000000E+00
  0.00000000E+00  0.00000000E+00  0.00000000E+00
  0.00000000E+00  0.00000000E+00  0.00000000E+00
  0.00000000E+00  0.00000000E+00  0.00000000E+00
  0.00000000E+00  0.00000000E+00  0.00000000E+00
  0.00000000E+00  0.00000000E+00  0.00000000E+00
  0.00000000E+00  0.00000000E+00  0.00000000E+00
  0.00000000E+00  0.00000000E+00  0.00000000E+00
  0.00000000E+00  0.00000000E+00  0.00000000E+00
  0.00000000E+00  0.00000000E+00  0.00000000E+00
  0.00000000E+00  0.00000000E+00  0.00000000E+00
  0.00000000E+00  0.00000000E+00  0.00000000E+00
  0.00000000E+00  0.00000000E+00  0.00000000E+00
  0.00000000E+00  0.00000000E+00  0.00000000E+00
  0.00000000E+00  0.00000000E+00  0.00000000E+00
  0.00000000E+00  0.00000000E+00  0.00000000E+00
  0.00000000E+00  0.00000000E+00  0.00000000E+00
  0.00000000E+00  0.00000000E+00  0.00000000E+00
  0.00000000E+00  0.00000000E+00  0.00000000E+00
  0.00000000E+00  0.00000000E+00  0.00000000E+00
  0.00000000E+00  0.00000000E+00  0.00000000E+00
  0.00000000E+00  0.00000000E+00  0.00000000E+00
  0.00000000E+00  0.00000000E+00  0.00000000E+00
  0.00000000E+00  0.00000000E+00  0.00000000E+00
  0.00000000E+00  0.00000000E+00  0.00000000E+00
  0.00000000E+00  0.00000000E+00  0.00000000E+00
  0.00000000E+00  0.00000000E+00  0.00000000E+00
  0.00000000E+00  0.00000000E+00  0.00000000E+00
  0.00000000E+00  0.00000000E+00  0.00000000E+00
  0.00000000E+00  0.00000000E+00  0.00000000E+00
  0.00000000E+00  0.00000000E+00  0.00000000E+00
  0.00000000E+00  0.00000000E+00  0.00000000E+00
  0.00000000E+00  0.00000000E+00  0.00000000E+00
  0.00000000E+00  0.00000000E+00  0.00000000E+00
  0.00000000E+00  0.00000000E+00  0.00000000E+00
  0.00000000E+00  0.00000000E+00  0.00000000E+00
  0.00000000E+00  0.00000000E+00  0.00000000E+00
  0.00000000E+00  0.00000000E+00  0.00000000E+00
  0.00000000E+00  0.00000000E+00  0.00000000E+00
  0.00000000E+00  0.00000000E+00  0.00000000E+00
  0.00000000E+00  0.00000000E+00  0.00000000E+00
  0.00000000E+00  0.00000000E+00  0.00000000E+00
  0.00000000E+00  0.00000000E+00  0.00000000E+00
  0.00000000E+00  0.00000000E+00  0.00000000E+00
  0.00000000E+00  0.00000000E+00  0.00000000E+00
  0.00000000E+00  0.00000000E+00  0.00000000E+00
  0.00000000E+00  0.00000000E+00  0.00000000E+00
  0.00000000E+00  0.00000000E+00  0.00000000E+00
  0.00000000E+00  0.00000000E+00  0.00000000E+00
  0.00000000E+00  0.00000000E+00  0.00000000E+00
  0.00000000E+00  0.00000000E+00  0.00000000E+00
  0.00000000E+00  0.00000000E+00  0.00000000E+00
  0.00000000E+00  0.00000000E+00  0.00000000E+00
  0.00000000E+00  0.00000000E+00  0.00000000E+00
  0.00000000E+00  0.00000000E+00  0.00000000E+00
  0.00000000E+00  0.00000000E+00  0.00000000E+00
  0.00000000E+00  0.00000000E+00  0.00000000E+00
  0.00000000E+00  0.00000000E+00  0.00000000E+00
  0.00000000E+00  0.00000000E+00  0.00000000E+00
  0.00000000E+00  0.00000000E+00  0.00000000E+00
  0.00000000E+00  0.00000000E+00  0.00000000E+00
  0.00000000E+00  0.00000000E+00  0.00000000E+00
  0.00000000E+00  0.00000000E+00  0.00000000E+00
  0.00000000E+00  0.00000000E+00  0.00000000E+00
  0.00000000E+00  0.00000000E+00  0.00000000E+00
  0.00000000E+00  0.00000000E+00  0.00000000E+00
  0.00000000E+00  0.00000000E+00  0.00000000E+00
  0.00000000E+00  0.00000000E+00  0.00000000E+00
  0.00000000E+00  0.00000000E+00  0.00000000E+00
  0.00000000E+00  0.00000000E+00  0.00000000E+00
  0.00000000E+00  0.00000000E+00  0.00000000E+00
  0.00000000E+00  0.00000000E+00  0.00000000E+00
  0.00000000E+00  0.00000000E+00  0.00000000E+00
  0.00000000E+00  0.00000000E+00  0.00000000E+00
  0.00000000E+00  0.00000000E+00  0.00000000E+00
  0.00000000E+00  0.00000000E+00  0.00000000E+00
  0.00000000E+00  0.00000000E+00  0.00000000E+00
  0.00000000E+00  0.00000000E+00  0.00000000E+00
  0.00000000E+00  0.00000000E+00  0.00000000E+00
  0.00000000E+00  0.00000000E+00  0.00000000E+00
  0.00000000E+00  0.00000000E+00  0.00000000E+00
  0.00000000E+00  0.00000000E+00  0.00000000E+00
  0.00000000E+00  0.00000000E+00  0.00000000E+00
  0.00000000E+00  0.00000000E+00  0.00000000E+00
  0.00000000E+00  0.00000000E+00  0.00000000E+00
  0.00000000E+00  0.00000000E+00  0.00000000E+00
  0.00000000E+00  0.00000000E+00  0.00000000E+00
  0.00000000E+00  0.00000000E+00  0.00000000E+00
  0.00000000E+00  0.00000000E+00  0.00000000E+00
  0.00000000E+00  0.00000000E+00  0.00000000E+00
  0.00000000E+00  0.00000000E+00  0.00000000E+00
  0.00000000E+00  0.00000000E+00  0.00000000E+00
  0.00000000E+00  0.00000000E+00  0.00000000E+00
  0.00000000E+00  0.00000000E+00  0.00000000E+00
  0.00000000E+00  0.00000000E+00  0.00000000E+00
  0.00000000E+00  0.00000000E+00  0.00000000E+00
  0.00000000E+00  0.00000000E+00  0.00000000E+00
  0.00000000E+00  0.00000000E+00  0.00000000E+00
  0.00000000E+00  0.00000000E+00  0.00000000E+00
  0.00000000E+00  0.00000000E+00  0.00000000E+00
  0.00000000E+00  0.00000000E+00  0.00000000E+00
  0.00000000E+00  0.00000000E+00  0.00000000E+00
  0.00000000E+00  0.00000000E+00  0.00000000E+00
  0.00000000E+00  0.00000000E+00  0.00000000E+00
  0.00000000E+00  0.00000000E+00  0.00000000E+00
  0.00000000E+00  0.00000000E+00  0.00000000E+00
  0.00000000E+00  0.00000000E+00  0.00000000E+00
  0.00000000E+00  0.00000000E+00  0.00000000E+00
  0.00000000E+00  0.00000000E+00  0.00000000E+00
  0.00000000E+00  0.00000000E+00  0.00000000E+00
  0.00000000E+00  0.00000000E+00  0.00000000E+00
  0.00000000E+00  0.00000000E+00  0.00000000E+00
  0.00000000E+00  0.00000000E+00  0.00000000E+00
  0.00000000E+00  0.00000000E+00  0.00000000E+00
  0.00000000E+00  0.00000000E+00  0.00000000E+00
