RuN12                                   
   1.00000000000000     
    17.0990250000000010   -9.8721259999999997    0.0000000000000000
     0.0000000000000000   19.7442530000000005    0.0000000000000000
     0.0000000000000000    0.0000000000000000   20.0000000000000000
   H    C    N    Ru
     6   117    12     1
Selective dynamics
Direct
  0.4406754354188532  0.4064654519436605  0.1357866512109019   T   T   T
  0.5481578653292184  0.4583937594141763  0.1408950197831210   T   T   T
  0.4419134527826731  0.5325235077001520  0.1380862160807582   T   T   T
  0.6232885463932381  0.6088014800900438  0.1408946290771025   T   T   T
  0.5667146987307895  0.6111081945895640  0.2091785164965571   T   T   T
  0.5714940919621927  0.6611400138771677  0.1340863050348562   T   T   T
  0.4957545025858144  0.4608168642088937  0.1267206158718942   T   T   T
  0.4976361380220878  0.5342837738440295  0.1291604710668541   T   T   T
  0.5686554963428536  0.6077932577448606  0.1541131629036886   T   T   T
  0.0210863863441964  0.9791197962217668  0.0000017946318512   T   T   T
  0.1042218832828931  0.0203933622716871 -0.0003323820606917   T   T   T
  0.1459301810916368  0.9787993190083500 -0.0004284021261685   T   T   T
  0.2293472793346213  0.0207155520186069 -0.0010710964825535   T   T   T
  0.2711627011687084  0.9787297262372776 -0.0006698791606484   T   T   T
  0.3543152817698819  0.0206689243557346 -0.0007851369391200   T   T   T
  0.3960173316103795  0.9786676890562365 -0.0003084947920068   T   T   T
  0.4793839529162231  0.0211250184482349 -0.0002659323716212   T   T   T
  0.5208931979467341  0.9789528663992784 -0.0002044324567082   T   T   T
  0.6042536203726514  0.0214052847314664 -0.0002077153017714   T   T   T
  0.6459524356487126  0.9793926447500062 -0.0006711135680366   T   T   T
  0.7291168246864543  0.0213420710272331 -0.0005753823326832   T   T   T
  0.7709109856046801  0.9793378747812099 -0.0010970291890001   T   T   T
  0.8543311285822708  0.0212437983659214 -0.0004119337253403   T   T   T
  0.8960365711755769  0.9796479713804535 -0.0003181255620215   T   T   T
  0.9791738609819693  0.0209192657101538  0.0000198151865379   T   T   T
  0.0202703600480654  0.1039808176440634 -0.0001252759562265   T   T   T
  0.1036004021853147  0.1453200629314393 -0.0007531055957463   T   T   T
  0.1454047317923478  0.1037944228795220 -0.0009653365023327   T   T   T
  0.2282721776947598  0.1452981141920391 -0.0020873005831649   T   T   T
  0.2701624100740797  0.1036507041096905 -0.0020444539256376   T   T   T
  0.3537500983575241  0.1460920674992177 -0.0022466623033295   T   T   T
  0.3955892220749082  0.1044298933336962 -0.0013047456451302   T   T   T
  0.4788161405289401  0.1468095265418445 -0.0007497909982670   T   T   T
  0.5205519215887711  0.1047668411428811 -0.0002509360285694   T   T   T
  0.6036862071003594  0.1474793825143124  0.0002136217590409   T   T   T
  0.6454244411920068  0.1051951302520076  0.0001733956514991   T   T   T
  0.7286537027411804  0.1468684521432072  0.0003575459373108   T   T   T
  0.7703598490323736  0.1047537399042313  0.0000421542243958   T   T   T
  0.8537495744424322  0.1463334579444590  0.0000769334787108   T   T   T
  0.8955314754667626  0.1045239779016919 -0.0000126507274443   T   T   T
  0.9787772298089286  0.1458115016075485 -0.0000528667599252   T   T   T
  0.0205560276931211  0.2292642920771243 -0.0003444715883082   T   T   T
  0.1036617547049132  0.2702800004617947 -0.0009722621921458   T   T   T
  0.1448340947972215  0.2281403416728349 -0.0013449063257305   T   T   T
  0.2277152913908574  0.2692873249770460 -0.0024181041190682   T   T   T
  0.2691494854743659  0.2284510718193410 -0.0031011763032366   T   T   T
  0.3945556211184649  0.2289518241715216 -0.0027451447223669   T   T   T
  0.4776369988860735  0.2720854200051467 -0.0010747735231592   T   T   T
  0.5190813113064159  0.2300170553267228 -0.0004252329140491   T   T   T
  0.6024991092214593  0.2739428182850619  0.0007107014873309   T   T   T
  0.6446783438273298  0.2314316798657689  0.0006325053400997   T   T   T
  0.7279485192736245  0.2726421501142419  0.0007345953399706   T   T   T
  0.7699468198870827  0.2304637722299423  0.0005418588475976   T   T   T
  0.8533061169297607  0.2715610325286163  0.0002020520817529   T   T   T
  0.8952419957048765  0.2296257883678785  0.0000735944207454   T   T   T
  0.9786144390658501  0.2709150116926802 -0.0002482044557027   T   T   T
  0.0206150468376845  0.3541986185904896 -0.0005787742503525   T   T   T
  0.1039422823277888  0.3951647021854156 -0.0008608597703882   T   T   T
  0.1458523102897543  0.3539111281528176 -0.0010971178254806   T   T   T
  0.2286201279734922  0.3943202997081791 -0.0010452496411437   T   T   T
  0.3498145406827400  0.3909681784223157  0.0030943569413309   T   T   T
  0.3910529286626191  0.3501734078344068 -0.0008205702117530   T   T   T
  0.5169564637219390  0.3559737718542440  0.0006932005877742   T   T   T
  0.6430140215171178  0.3570939634352269  0.0014618429525663   T   T   T
  0.7265023705144519  0.3985472431669406  0.0006925526109615   T   T   T
  0.7690034027712975  0.3560615003712950  0.0004925054730130   T   T   T
  0.8527981667549881  0.3966622218683342 -0.0001881845341896   T   T   T
  0.8949805995642101  0.3547773192261688 -0.0002065242032270   T   T   T
  0.9786303709116339  0.3959489757471363 -0.0005828932330134   T   T   T
  0.0211414083033853  0.4791871532181722 -0.0007139659613441   T   T   T
  0.1050715148463705  0.5204137219348640 -0.0004937397844773   T   T   T
  0.1471296697226240  0.4785161390953712 -0.0006353073336295   T   T   T
  0.2298472885726627  0.5187906881454498 -0.0000418057230389   T   T   T
  0.3549485827900801  0.5159454622404372  0.0055787513713393   T   T   T
  0.6453764900791323  0.4841821533776516  0.0046417768735901   T   T   T
  0.7704229187521303  0.4812844202735531 -0.0005415366715185   T   T   T
  0.8531184251818551  0.5215549515777351 -0.0009404305788598   T   T   T
  0.8951752526315762  0.4796337524075688 -0.0007017404886716   T   T   T
  0.9791061066361219  0.5208559444740009 -0.0007477588885725   T   T   T
  0.0216103671919026  0.6040944111334736 -0.0005022733821172   T   T   T
  0.1052588266910053  0.6452618921521699 -0.0000204005444316   T   T   T
  0.1474508194722839  0.6033918363014237  0.0000740197590911   T   T   T
  0.2312446852765449  0.6440114050994021  0.0008155755454183   T   T   T
  0.2737580872863830  0.6015351024252316  0.0011158152052103   T   T   T
  0.3572495057460582  0.6429816933968023  0.0017989279305363   T   T   T
  0.4833444184492273  0.6441658212290871  0.0004007237069601   T   T   T
  0.6092401162070091  0.6498982891870160 -0.0028169991066807   T   T   T
  0.6503964518146079  0.6090505240953623  0.0003828414794951   T   T   T
  0.7716538147755453  0.6057627597999398 -0.0018481183534236   T   T   T
  0.8543994853991835  0.6461447155259055 -0.0014329205460207   T   T   T
  0.8963231662408628  0.6049075625693161 -0.0010076059187346   T   T   T
  0.9796315545577226  0.6458528225329094 -0.0005282845106584   T   T   T
  0.0216406801771936  0.7291303184903971 -0.0001507402567670   T   T   T
  0.1050189538231382  0.7704217848379872  0.0001881748932431   T   T   T
  0.1469483493521712  0.7284861246748211  0.0003517732925041   T   T   T
  0.2303038783763337  0.7695960492040109  0.0006738273128333   T   T   T
  0.2723088204401328  0.7274265028769629  0.0009678129458592   T   T   T
  0.3555884327272019  0.7686451277182822  0.0008494418438906   T   T   T
  0.3977852202086150  0.7261491752636255  0.0009467274234527   T   T   T
  0.4811889839266748  0.7700724157050327 -0.0003518746121454   T   T   T
  0.5226171266201546  0.7279599059559869 -0.0013882220364743   T   T   T
  0.6057188221342695  0.7711419546049938 -0.0035677715275684   T   T   T
  0.7311080936395185  0.7716287654711286 -0.0041813160771350   T   T   T
  0.7725315633208482  0.7307976912226106 -0.0033585163318921   T   T   T
  0.8554090689375531  0.7719154408580743 -0.0016712988185507   T   T   T
  0.8965868387726985  0.7297723737736654 -0.0011772638009830   T   T   T
  0.9796922668127370  0.7707790738265091 -0.0003298140441973   T   T   T
  0.0214788936305175  0.8542334050872497 -0.0000411810416173   T   T   T
  0.1047256823854713  0.8955182035139309 -0.0000190363636629   T   T   T
  0.1465145267789630  0.8537153018318143  0.0000971346937212   T   T   T
  0.2299019460048652  0.8953006276967422 -0.0000155957408810   T   T   T
  0.2716119344681438  0.8531986856472890  0.0003714962937712   T   T   T
  0.3548439742488938  0.8948725709897752  0.0001716913944376   T   T   T
  0.3965915536691419  0.8525981017373299  0.0003407838057510   T   T   T
  0.4797268142287606  0.8953150417526690 -0.0001261622736258   T   T   T
  0.5214575907987936  0.8532776994243444 -0.0006613887139979   T   T   T
  0.6046819614860730  0.8956540633341041 -0.0013106120065383   T   T   T
  0.6464986394229451  0.8539501794472595 -0.0026481620076080   T   T   T
  0.7301016215596973  0.8964173481751631 -0.0023790638787083   T   T   T
  0.7719791610517210  0.8547677975836985 -0.0025822569223649   T   T   T
  0.8548441520572846  0.8962563309926970 -0.0010946701800594   T   T   T
  0.8966456089633752  0.8547317099955717 -0.0008390293147587   T   T   T
  0.9799822155756207  0.8960635791104963 -0.0001265647092330   T   T   T
  0.2715564537514296  0.4767732952224872 -0.0002575053778310   T   T   T
  0.7286194007112735  0.5232765749790976 -0.0009378924610054   T   T   T
  0.3513063718187101  0.2680098010833674 -0.0046150687929208   T   T   T
  0.2671244320158431  0.3519463861622921 -0.0023209043968526   T   T   T
  0.4716662921804535  0.3905884995156525  0.0015050065624148   T   T   T
  0.6007880264116549  0.4010110339516658  0.0024233693367596   T   T   T
  0.3881948427118657  0.4706821885629462  0.0125525533106059   T   T   T
  0.6119858744718584  0.5295207702728464  0.0111315231047699   T   T   T
  0.3994665113976612  0.5990820370336687  0.0027201070206444   T   T   T
  0.5286180588866661  0.6094062562437529  0.0007365567201758   T   T   T
  0.7331304230040512  0.6481345290709959 -0.0038277540245297   T   T   T
  0.6489302513064115  0.7320462413717684 -0.0062916781761433   T   T   T
  0.5002366123418296  0.5002386781053217  0.0262192489278298   T   T   T
 
  0.00000000E+00  0.00000000E+00  0.00000000E+00
  0.00000000E+00  0.00000000E+00  0.00000000E+00
  0.00000000E+00  0.00000000E+00  0.00000000E+00
  0.00000000E+00  0.00000000E+00  0.00000000E+00
  0.00000000E+00  0.00000000E+00  0.00000000E+00
  0.00000000E+00  0.00000000E+00  0.00000000E+00
  0.00000000E+00  0.00000000E+00  0.00000000E+00
  0.00000000E+00  0.00000000E+00  0.00000000E+00
  0.00000000E+00  0.00000000E+00  0.00000000E+00
  0.00000000E+00  0.00000000E+00  0.00000000E+00
  0.00000000E+00  0.00000000E+00  0.00000000E+00
  0.00000000E+00  0.00000000E+00  0.00000000E+00
  0.00000000E+00  0.00000000E+00  0.00000000E+00
  0.00000000E+00  0.00000000E+00  0.00000000E+00
  0.00000000E+00  0.00000000E+00  0.00000000E+00
  0.00000000E+00  0.00000000E+00  0.00000000E+00
  0.00000000E+00  0.00000000E+00  0.00000000E+00
  0.00000000E+00  0.00000000E+00  0.00000000E+00
  0.00000000E+00  0.00000000E+00  0.00000000E+00
  0.00000000E+00  0.00000000E+00  0.00000000E+00
  0.00000000E+00  0.00000000E+00  0.00000000E+00
  0.00000000E+00  0.00000000E+00  0.00000000E+00
  0.00000000E+00  0.00000000E+00  0.00000000E+00
  0.00000000E+00  0.00000000E+00  0.00000000E+00
  0.00000000E+00  0.00000000E+00  0.00000000E+00
  0.00000000E+00  0.00000000E+00  0.00000000E+00
  0.00000000E+00  0.00000000E+00  0.00000000E+00
  0.00000000E+00  0.00000000E+00  0.00000000E+00
  0.00000000E+00  0.00000000E+00  0.00000000E+00
  0.00000000E+00  0.00000000E+00  0.00000000E+00
  0.00000000E+00  0.00000000E+00  0.00000000E+00
  0.00000000E+00  0.00000000E+00  0.00000000E+00
  0.00000000E+00  0.00000000E+00  0.00000000E+00
  0.00000000E+00  0.00000000E+00  0.00000000E+00
  0.00000000E+00  0.00000000E+00  0.00000000E+00
  0.00000000E+00  0.00000000E+00  0.00000000E+00
  0.00000000E+00  0.00000000E+00  0.00000000E+00
  0.00000000E+00  0.00000000E+00  0.00000000E+00
  0.00000000E+00  0.00000000E+00  0.00000000E+00
  0.00000000E+00  0.00000000E+00  0.00000000E+00
  0.00000000E+00  0.00000000E+00  0.00000000E+00
  0.00000000E+00  0.00000000E+00  0.00000000E+00
  0.00000000E+00  0.00000000E+00  0.00000000E+00
  0.00000000E+00  0.00000000E+00  0.00000000E+00
  0.00000000E+00  0.00000000E+00  0.00000000E+00
  0.00000000E+00  0.00000000E+00  0.00000000E+00
  0.00000000E+00  0.00000000E+00  0.00000000E+00
  0.00000000E+00  0.00000000E+00  0.00000000E+00
  0.00000000E+00  0.00000000E+00  0.00000000E+00
  0.00000000E+00  0.00000000E+00  0.00000000E+00
  0.00000000E+00  0.00000000E+00  0.00000000E+00
  0.00000000E+00  0.00000000E+00  0.00000000E+00
  0.00000000E+00  0.00000000E+00  0.00000000E+00
  0.00000000E+00  0.00000000E+00  0.00000000E+00
  0.00000000E+00  0.00000000E+00  0.00000000E+00
  0.00000000E+00  0.00000000E+00  0.00000000E+00
  0.00000000E+00  0.00000000E+00  0.00000000E+00
  0.00000000E+00  0.00000000E+00  0.00000000E+00
  0.00000000E+00  0.00000000E+00  0.00000000E+00
  0.00000000E+00  0.00000000E+00  0.00000000E+00
  0.00000000E+00  0.00000000E+00  0.00000000E+00
  0.00000000E+00  0.00000000E+00  0.00000000E+00
  0.00000000E+00  0.00000000E+00  0.00000000E+00
  0.00000000E+00  0.00000000E+00  0.00000000E+00
  0.00000000E+00  0.00000000E+00  0.00000000E+00
  0.00000000E+00  0.00000000E+00  0.00000000E+00
  0.00000000E+00  0.00000000E+00  0.00000000E+00
  0.00000000E+00  0.00000000E+00  0.00000000E+00
  0.00000000E+00  0.00000000E+00  0.00000000E+00
  0.00000000E+00  0.00000000E+00  0.00000000E+00
  0.00000000E+00  0.00000000E+00  0.00000000E+00
  0.00000000E+00  0.00000000E+00  0.00000000E+00
  0.00000000E+00  0.00000000E+00  0.00000000E+00
  0.00000000E+00  0.00000000E+00  0.00000000E+00
  0.00000000E+00  0.00000000E+00  0.00000000E+00
  0.00000000E+00  0.00000000E+00  0.00000000E+00
  0.00000000E+00  0.00000000E+00  0.00000000E+00
  0.00000000E+00  0.00000000E+00  0.00000000E+00
  0.00000000E+00  0.00000000E+00  0.00000000E+00
  0.00000000E+00  0.00000000E+00  0.00000000E+00
  0.00000000E+00  0.00000000E+00  0.00000000E+00
  0.00000000E+00  0.00000000E+00  0.00000000E+00
  0.00000000E+00  0.00000000E+00  0.00000000E+00
  0.00000000E+00  0.00000000E+00  0.00000000E+00
  0.00000000E+00  0.00000000E+00  0.00000000E+00
  0.00000000E+00  0.00000000E+00  0.00000000E+00
  0.00000000E+00  0.00000000E+00  0.00000000E+00
  0.00000000E+00  0.00000000E+00  0.00000000E+00
  0.00000000E+00  0.00000000E+00  0.00000000E+00
  0.00000000E+00  0.00000000E+00  0.00000000E+00
  0.00000000E+00  0.00000000E+00  0.00000000E+00
  0.00000000E+00  0.00000000E+00  0.00000000E+00
  0.00000000E+00  0.00000000E+00  0.00000000E+00
  0.00000000E+00  0.00000000E+00  0.00000000E+00
  0.00000000E+00  0.00000000E+00  0.00000000E+00
  0.00000000E+00  0.00000000E+00  0.00000000E+00
  0.00000000E+00  0.00000000E+00  0.00000000E+00
  0.00000000E+00  0.00000000E+00  0.00000000E+00
  0.00000000E+00  0.00000000E+00  0.00000000E+00
  0.00000000E+00  0.00000000E+00  0.00000000E+00
  0.00000000E+00  0.00000000E+00  0.00000000E+00
  0.00000000E+00  0.00000000E+00  0.00000000E+00
  0.00000000E+00  0.00000000E+00  0.00000000E+00
  0.00000000E+00  0.00000000E+00  0.00000000E+00
  0.00000000E+00  0.00000000E+00  0.00000000E+00
  0.00000000E+00  0.00000000E+00  0.00000000E+00
  0.00000000E+00  0.00000000E+00  0.00000000E+00
  0.00000000E+00  0.00000000E+00  0.00000000E+00
  0.00000000E+00  0.00000000E+00  0.00000000E+00
  0.00000000E+00  0.00000000E+00  0.00000000E+00
  0.00000000E+00  0.00000000E+00  0.00000000E+00
  0.00000000E+00  0.00000000E+00  0.00000000E+00
  0.00000000E+00  0.00000000E+00  0.00000000E+00
  0.00000000E+00  0.00000000E+00  0.00000000E+00
  0.00000000E+00  0.00000000E+00  0.00000000E+00
  0.00000000E+00  0.00000000E+00  0.00000000E+00
  0.00000000E+00  0.00000000E+00  0.00000000E+00
  0.00000000E+00  0.00000000E+00  0.00000000E+00
  0.00000000E+00  0.00000000E+00  0.00000000E+00
  0.00000000E+00  0.00000000E+00  0.00000000E+00
  0.00000000E+00  0.00000000E+00  0.00000000E+00
  0.00000000E+00  0.00000000E+00  0.00000000E+00
  0.00000000E+00  0.00000000E+00  0.00000000E+00
  0.00000000E+00  0.00000000E+00  0.00000000E+00
  0.00000000E+00  0.00000000E+00  0.00000000E+00
  0.00000000E+00  0.00000000E+00  0.00000000E+00
  0.00000000E+00  0.00000000E+00  0.00000000E+00
  0.00000000E+00  0.00000000E+00  0.00000000E+00
  0.00000000E+00  0.00000000E+00  0.00000000E+00
  0.00000000E+00  0.00000000E+00  0.00000000E+00
  0.00000000E+00  0.00000000E+00  0.00000000E+00
  0.00000000E+00  0.00000000E+00  0.00000000E+00
  0.00000000E+00  0.00000000E+00  0.00000000E+00
  0.00000000E+00  0.00000000E+00  0.00000000E+00
  0.00000000E+00  0.00000000E+00  0.00000000E+00
  0.00000000E+00  0.00000000E+00  0.00000000E+00
