RuN13                                   
   1.00000000000000     
    17.0990259999999985   -9.8721239999999995    0.0000000000000000
     0.0000000000000000   19.7442530000000005    0.0000000000000000
     0.0000000000000000    0.0000000000000000   20.0000000000000000
   H    C    N    Ru
     6   116    13     1
Selective dynamics
Direct
  0.4457145669429715  0.4117271984561190  0.1389008790407570   T   T   T
  0.5533427571266507  0.4637968760431962  0.1421980056616637   T   T   T
  0.4473903243631985  0.5383073193403992  0.1384908714067748   T   T   T
  0.6286387935459042  0.6137971668812212  0.1401664505366591   T   T   T
  0.5724603945313567  0.6143870745800950  0.2091560742190606   T   T   T
  0.5770138631913598  0.6665479870356266  0.1355000187799728   T   T   T
  0.0210254491671816  0.9788790092400010  0.9977339240414925   T   T   T
  0.1042010212174435  0.0201272358574549  0.9973574015543343   T   T   T
  0.1459899483181864  0.9786211612119691  0.9975482607094927   T   T   T
  0.2294345740008167  0.0205298887410959  0.9972672158311188   T   T   T
  0.2709035243940889  0.9782840712286215  0.9980865168302272   T   T   T
  0.3542772412923959  0.0202968798185524  0.9982651138008640   T   T   T
  0.3958669946497188  0.9781266360924543  0.9987289522982263   T   T   T
  0.4790605593017247  0.0205192958715634  0.9987032146525908   T   T   T
  0.5206671474371679  0.9782274181362860  0.9986893785516655   T   T   T
  0.6039410256120115  0.0208363747780439  0.9985329440837892   T   T   T
  0.6456029772673907  0.9786606787473061  0.9981776869910616   T   T   T
  0.7289503216416595  0.0207627258316957  0.9981797659058445   T   T   T
  0.7705603727812489  0.9789472030786230  0.9978774358796932   T   T   T
  0.8539454665178148  0.0208014440773221  0.9980047385476095   T   T   T
  0.8960802495404178  0.9794861850231591  0.9978791568206464   T   T   T
  0.9791607046841706  0.0207069268929157  0.9977772625485820   T   T   T
  0.0203209984273140  0.1038126902415322  0.9976055879124961   T   T   T
  0.1036495887519029  0.1450458639583619  0.9968947608753864   T   T   T
  0.1454209512620188  0.1034845834139279  0.9966574613506168   T   T   T
  0.2283544813731386  0.1449453569409402  0.9956651215486283   T   T   T
  0.2703978444848589  0.1037372865474296  0.9962614443434943   T   T   T
  0.3543072147198387  0.1461390347101147  0.9968326226993151   T   T   T
  0.3952806676083822  0.1035782584262653  0.9979898118232439   T   T   T
  0.4783857469002363  0.1465181098498489  0.9984893567823130   T   T   T
  0.5202201476160460  0.1043599435134527  0.9987148125186358   T   T   T
  0.6033080788238570  0.1469786255888287  0.9989262417183727   T   T   T
  0.6451044551218790  0.1045795620822733  0.9987750910375668   T   T   T
  0.7282757586784598  0.1463511662189437  0.9988803466368986   T   T   T
  0.7702043584414776  0.1043935044069240  0.9985833333951483   T   T   T
  0.8534687618649129  0.1458721097490391  0.9986060453945280   T   T   T
  0.8952780806694481  0.1041497827892521  0.9982524431895337   T   T   T
  0.9786836188113136  0.1455208491897889  0.9979989771635965   T   T   T
  0.0205117020089641  0.2289234895169935  0.9981212710362503   T   T   T
  0.1037292268478022  0.2699093685840900  0.9975322039703456   T   T   T
  0.1449779247990207  0.2279150883235277  0.9966144189097195   T   T   T
  0.2280055598205749  0.2688905189301437  0.9955099118073251   T   T   T
  0.2693297103431071  0.2280189264068903  0.9944945855724818   T   T   T
  0.3947825657635675  0.2285255135209305  0.9962412454707960   T   T   T
  0.5187436701887908  0.2293165007103427  0.9988288811027958   T   T   T
  0.6014364946265897  0.2734388355151833  0.9996638116477766   T   T   T
  0.6437965812928010  0.2306389690799651  0.9993864263991393   T   T   T
  0.7272631592112236  0.2720804504594425  0.9995886044515021   T   T   T
  0.7694234904214753  0.2299610964602933  0.9992510651943144   T   T   T
  0.8528901438795319  0.2711159645982364  0.9992420691556414   T   T   T
  0.8951131837292041  0.2293682869375425  0.9989119107233746   T   T   T
  0.9783793161252708  0.2704930081417773  0.9987475608072715   T   T   T
  0.0204316667409271  0.3539141808137597  0.9990821467198810   T   T   T
  0.1036652618542674  0.3948871658417422  0.9990287019739488   T   T   T
  0.1459846107066406  0.3536845337061570  0.9982098611694725   T   T   T
  0.2284468440692465  0.3940571557564264  0.9983428361262370   T   T   T
  0.3496157958870371  0.3903792193794256  0.0015358015914801   T   T   T
  0.3912602099829817  0.3500901345688701  0.9969260318143425   T   T   T
  0.5164555569396692  0.3548048329148361  0.9977266453490417   T   T   T
  0.6427861213045042  0.3564537354664944  0.0005676476391385   T   T   T
  0.7257667135951995  0.3978812454220896  0.0003056931478953   T   T   T
  0.7685179591074660  0.3554953689964077  0.9998877574116344   T   T   T
  0.8522236898498883  0.3960529037742896  0.9996096177783935   T   T   T
  0.8945095619973081  0.3543375241488947  0.9994226889784993   T   T   T
  0.9782818631832405  0.3955416230183819  0.9994010323107417   T   T   T
  0.0208389900042621  0.4787406194535646  0.9995967964005655   T   T   T
  0.1046223396778660  0.5198952836788253  0.9998914778110642   T   T   T
  0.1467132632860522  0.4780395488543494  0.9997154133761289   T   T   T
  0.2294758277641721  0.5184013499330947  0.0003096163067512   T   T   T
  0.3548015480402507  0.5157888303911523  0.0062131810667198   T   T   T
  0.6446061582126051  0.4828515817514383  0.0071023293697366   T   T   T
  0.7699586409101166  0.4807499307274298  0.9997483197193698   T   T   T
  0.8528494253139379  0.5211348892602330  0.9994208308833971   T   T   T
  0.8949006870357228  0.4792496924781184  0.9994993945301559   T   T   T
  0.9786509849292222  0.5203955651289929  0.9995441608512102   T   T   T
  0.0213154924163242  0.6036468235113386  0.9995846097115233   T   T   T
  0.1050737750021130  0.6448968112694891  0.9998892861991938   T   T   T
  0.1472568094634967  0.6030334367325307  0.0002383739830624   T   T   T
  0.2308189549066428  0.6435673460925797  0.0008306999233294   T   T   T
  0.2734687732717659  0.6011254541919104  0.0014152291582730   T   T   T
  0.3563902198067660  0.6423115309240116  0.0023414001118052   T   T   T
  0.4834533269057711  0.6432770960652306  0.0023199592252116   T   T   T
  0.5283744294636791  0.6068605456435157  0.0060713410800557   T   T   T
  0.6509571082610421  0.6079515269863230  0.0025217559651875   T   T   T
  0.7712911950287326  0.6046777062769074  0.9988797926362801   T   T   T
  0.8538354481016367  0.6455245495790790  0.9987041610530792   T   T   T
  0.8960418079841336  0.6042207560976376  0.9992074384182544   T   T   T
  0.9793676093302098  0.6453061616029679  0.9993112555428688   T   T   T
  0.0215518216365943  0.7287242943015136  0.9990467205429053   T   T   T
  0.1047785925085905  0.7699531060031299  0.9992300047082586   T   T   T
  0.1467836533863855  0.7280129803716142  0.9997814936407140   T   T   T
  0.2302760576128205  0.7692194129966430 -0.0000025441477903   T   T   T
  0.2722378856318673  0.7270272094546611  0.0005748151734183   T   T   T
  0.3556535862599330  0.7682885434351570  0.0002754367909046   T   T   T
  0.3977522673649615  0.7254841982141498  0.0007413371134195   T   T   T
  0.4805425802921802  0.7692031399022896  0.9990057723221976   T   T   T
  0.6046274009662985  0.7690102170582878  0.9974802428910476   T   T   T
  0.6484043296710688  0.7311750634574268  0.9967488582169853   T   T   T
  0.7310932339354616  0.7715102063798313  0.9968730705827510   T   T   T
  0.7732451328361215  0.7308564993599475  0.9971269468777515   T   T   T
  0.8553566937766915  0.7713554395696807  0.9976323967692227   T   T   T
  0.8965598810063080  0.7292531343311695  0.9981667836971432   T   T   T
  0.9795388697564700  0.7703199591260946  0.9984936186144253   T   T   T
  0.0213636318941289  0.8538633911815309  0.9981860175851841   T   T   T
  0.1046214143401108  0.8951690961326715  0.9981792588147053   T   T   T
  0.1463596050387511  0.8533833120804251  0.9987481048086906   T   T   T
  0.2297080470691923  0.8949732319564641  0.9987841910046434   T   T   T
  0.2715212092979525  0.8527752341822131  0.9994141901410674   T   T   T
  0.3546073308366798  0.8943368044324799  0.9992013565076585   T   T   T
  0.3963475511582082  0.8519804178856054  0.9994157576843130   T   T   T
  0.4794977642750801  0.8943849062083477  0.9988530330276616   T   T   T
  0.5211152719416046  0.8520033171941814  0.9984264869921660   T   T   T
  0.6047267409370030  0.8951960301454580  0.9979000110781925   T   T   T
  0.6458230940424402  0.8531774180438202  0.9974917592330632   T   T   T
  0.7292704481466540  0.8952299304616934  0.9975006674472220   T   T   T
  0.7720983432274166  0.8546990551286191  0.9973578427632628   T   T   T
  0.8549826127954622  0.8962759390680435  0.9976786537912407   T   T   T
  0.8965935653907509  0.8545773339356649  0.9977248134115393   T   T   T
  0.9798200157290200  0.8957371929267454  0.9979010933733822   T   T   T
  0.5006007527134007  0.4656879931167457  0.1282583064713095   T   T   T
  0.5026945014075610  0.5395432473577683  0.1285926020787947   T   T   T
  0.5740685376805793  0.6126453432123270  0.1540338454188244   T   T   T
  0.3521672884035056  0.2676060253236591  0.9924937310340572   T   T   T
  0.4771161798918631  0.2715035841957010  0.9983109921415988   T   T   T
  0.2673273773972580  0.3516700785404027  0.9962294905080169   T   T   T
  0.4712642281600395  0.3888860215691361  0.9987317140045615   T   T   T
  0.5994912029927058  0.3997162453824895  0.0015163994251263   T   T   T
  0.2714026318535522  0.4763523191593858 -0.0002396691513398   T   T   T
  0.3878747029950199  0.4702802587378614  0.0123640245363741   T   T   T
  0.6119197866819097  0.5302191925174001  0.0120277522698647   T   T   T
  0.7281281770704151  0.5225818486628067 -0.0000987279926543   T   T   T
  0.3988501289099907  0.5988295432797905  0.0043559025236874   T   T   T
  0.6105308460781799  0.6488773167290344 -0.0004908413148777   T   T   T
  0.7324350695698706  0.6480247396189821  0.9973095870956096   T   T   T
  0.5213656107450395  0.7271466505777556  0.9984100341036659   T   T   T
  0.4988389142143093  0.4992254148785313  0.0271216867254555   T   T   T
 
  0.00000000E+00  0.00000000E+00  0.00000000E+00
  0.00000000E+00  0.00000000E+00  0.00000000E+00
  0.00000000E+00  0.00000000E+00  0.00000000E+00
  0.00000000E+00  0.00000000E+00  0.00000000E+00
  0.00000000E+00  0.00000000E+00  0.00000000E+00
  0.00000000E+00  0.00000000E+00  0.00000000E+00
  0.00000000E+00  0.00000000E+00  0.00000000E+00
  0.00000000E+00  0.00000000E+00  0.00000000E+00
  0.00000000E+00  0.00000000E+00  0.00000000E+00
  0.00000000E+00  0.00000000E+00  0.00000000E+00
  0.00000000E+00  0.00000000E+00  0.00000000E+00
  0.00000000E+00  0.00000000E+00  0.00000000E+00
  0.00000000E+00  0.00000000E+00  0.00000000E+00
  0.00000000E+00  0.00000000E+00  0.00000000E+00
  0.00000000E+00  0.00000000E+00  0.00000000E+00
  0.00000000E+00  0.00000000E+00  0.00000000E+00
  0.00000000E+00  0.00000000E+00  0.00000000E+00
  0.00000000E+00  0.00000000E+00  0.00000000E+00
  0.00000000E+00  0.00000000E+00  0.00000000E+00
  0.00000000E+00  0.00000000E+00  0.00000000E+00
  0.00000000E+00  0.00000000E+00  0.00000000E+00
  0.00000000E+00  0.00000000E+00  0.00000000E+00
  0.00000000E+00  0.00000000E+00  0.00000000E+00
  0.00000000E+00  0.00000000E+00  0.00000000E+00
  0.00000000E+00  0.00000000E+00  0.00000000E+00
  0.00000000E+00  0.00000000E+00  0.00000000E+00
  0.00000000E+00  0.00000000E+00  0.00000000E+00
  0.00000000E+00  0.00000000E+00  0.00000000E+00
  0.00000000E+00  0.00000000E+00  0.00000000E+00
  0.00000000E+00  0.00000000E+00  0.00000000E+00
  0.00000000E+00  0.00000000E+00  0.00000000E+00
  0.00000000E+00  0.00000000E+00  0.00000000E+00
  0.00000000E+00  0.00000000E+00  0.00000000E+00
  0.00000000E+00  0.00000000E+00  0.00000000E+00
  0.00000000E+00  0.00000000E+00  0.00000000E+00
  0.00000000E+00  0.00000000E+00  0.00000000E+00
  0.00000000E+00  0.00000000E+00  0.00000000E+00
  0.00000000E+00  0.00000000E+00  0.00000000E+00
  0.00000000E+00  0.00000000E+00  0.00000000E+00
  0.00000000E+00  0.00000000E+00  0.00000000E+00
  0.00000000E+00  0.00000000E+00  0.00000000E+00
  0.00000000E+00  0.00000000E+00  0.00000000E+00
  0.00000000E+00  0.00000000E+00  0.00000000E+00
  0.00000000E+00  0.00000000E+00  0.00000000E+00
  0.00000000E+00  0.00000000E+00  0.00000000E+00
  0.00000000E+00  0.00000000E+00  0.00000000E+00
  0.00000000E+00  0.00000000E+00  0.00000000E+00
  0.00000000E+00  0.00000000E+00  0.00000000E+00
  0.00000000E+00  0.00000000E+00  0.00000000E+00
  0.00000000E+00  0.00000000E+00  0.00000000E+00
  0.00000000E+00  0.00000000E+00  0.00000000E+00
  0.00000000E+00  0.00000000E+00  0.00000000E+00
  0.00000000E+00  0.00000000E+00  0.00000000E+00
  0.00000000E+00  0.00000000E+00  0.00000000E+00
  0.00000000E+00  0.00000000E+00  0.00000000E+00
  0.00000000E+00  0.00000000E+00  0.00000000E+00
  0.00000000E+00  0.00000000E+00  0.00000000E+00
  0.00000000E+00  0.00000000E+00  0.00000000E+00
  0.00000000E+00  0.00000000E+00  0.00000000E+00
  0.00000000E+00  0.00000000E+00  0.00000000E+00
  0.00000000E+00  0.00000000E+00  0.00000000E+00
  0.00000000E+00  0.00000000E+00  0.00000000E+00
  0.00000000E+00  0.00000000E+00  0.00000000E+00
  0.00000000E+00  0.00000000E+00  0.00000000E+00
  0.00000000E+00  0.00000000E+00  0.00000000E+00
  0.00000000E+00  0.00000000E+00  0.00000000E+00
  0.00000000E+00  0.00000000E+00  0.00000000E+00
  0.00000000E+00  0.00000000E+00  0.00000000E+00
  0.00000000E+00  0.00000000E+00  0.00000000E+00
  0.00000000E+00  0.00000000E+00  0.00000000E+00
  0.00000000E+00  0.00000000E+00  0.00000000E+00
  0.00000000E+00  0.00000000E+00  0.00000000E+00
  0.00000000E+00  0.00000000E+00  0.00000000E+00
  0.00000000E+00  0.00000000E+00  0.00000000E+00
  0.00000000E+00  0.00000000E+00  0.00000000E+00
  0.00000000E+00  0.00000000E+00  0.00000000E+00
  0.00000000E+00  0.00000000E+00  0.00000000E+00
  0.00000000E+00  0.00000000E+00  0.00000000E+00
  0.00000000E+00  0.00000000E+00  0.00000000E+00
  0.00000000E+00  0.00000000E+00  0.00000000E+00
  0.00000000E+00  0.00000000E+00  0.00000000E+00
  0.00000000E+00  0.00000000E+00  0.00000000E+00
  0.00000000E+00  0.00000000E+00  0.00000000E+00
  0.00000000E+00  0.00000000E+00  0.00000000E+00
  0.00000000E+00  0.00000000E+00  0.00000000E+00
  0.00000000E+00  0.00000000E+00  0.00000000E+00
  0.00000000E+00  0.00000000E+00  0.00000000E+00
  0.00000000E+00  0.00000000E+00  0.00000000E+00
  0.00000000E+00  0.00000000E+00  0.00000000E+00
  0.00000000E+00  0.00000000E+00  0.00000000E+00
  0.00000000E+00  0.00000000E+00  0.00000000E+00
  0.00000000E+00  0.00000000E+00  0.00000000E+00
  0.00000000E+00  0.00000000E+00  0.00000000E+00
  0.00000000E+00  0.00000000E+00  0.00000000E+00
  0.00000000E+00  0.00000000E+00  0.00000000E+00
  0.00000000E+00  0.00000000E+00  0.00000000E+00
  0.00000000E+00  0.00000000E+00  0.00000000E+00
  0.00000000E+00  0.00000000E+00  0.00000000E+00
  0.00000000E+00  0.00000000E+00  0.00000000E+00
  0.00000000E+00  0.00000000E+00  0.00000000E+00
  0.00000000E+00  0.00000000E+00  0.00000000E+00
  0.00000000E+00  0.00000000E+00  0.00000000E+00
  0.00000000E+00  0.00000000E+00  0.00000000E+00
  0.00000000E+00  0.00000000E+00  0.00000000E+00
  0.00000000E+00  0.00000000E+00  0.00000000E+00
  0.00000000E+00  0.00000000E+00  0.00000000E+00
  0.00000000E+00  0.00000000E+00  0.00000000E+00
  0.00000000E+00  0.00000000E+00  0.00000000E+00
  0.00000000E+00  0.00000000E+00  0.00000000E+00
  0.00000000E+00  0.00000000E+00  0.00000000E+00
  0.00000000E+00  0.00000000E+00  0.00000000E+00
  0.00000000E+00  0.00000000E+00  0.00000000E+00
  0.00000000E+00  0.00000000E+00  0.00000000E+00
  0.00000000E+00  0.00000000E+00  0.00000000E+00
  0.00000000E+00  0.00000000E+00  0.00000000E+00
  0.00000000E+00  0.00000000E+00  0.00000000E+00
  0.00000000E+00  0.00000000E+00  0.00000000E+00
  0.00000000E+00  0.00000000E+00  0.00000000E+00
  0.00000000E+00  0.00000000E+00  0.00000000E+00
  0.00000000E+00  0.00000000E+00  0.00000000E+00
  0.00000000E+00  0.00000000E+00  0.00000000E+00
  0.00000000E+00  0.00000000E+00  0.00000000E+00
  0.00000000E+00  0.00000000E+00  0.00000000E+00
  0.00000000E+00  0.00000000E+00  0.00000000E+00
  0.00000000E+00  0.00000000E+00  0.00000000E+00
  0.00000000E+00  0.00000000E+00  0.00000000E+00
  0.00000000E+00  0.00000000E+00  0.00000000E+00
  0.00000000E+00  0.00000000E+00  0.00000000E+00
  0.00000000E+00  0.00000000E+00  0.00000000E+00
  0.00000000E+00  0.00000000E+00  0.00000000E+00
  0.00000000E+00  0.00000000E+00  0.00000000E+00
  0.00000000E+00  0.00000000E+00  0.00000000E+00
  0.00000000E+00  0.00000000E+00  0.00000000E+00
  0.00000000E+00  0.00000000E+00  0.00000000E+00
  0.00000000E+00  0.00000000E+00  0.00000000E+00
  0.00000000E+00  0.00000000E+00  0.00000000E+00
