RuN8                                    
   1.00000000000000     
    17.0990250000000010   -9.8721259999999997    0.0000000000000000
     0.0000000000000000   19.7442530000000005    0.0000000000000000
     0.0000000000000000    0.0000000000000000   20.0000000000000000
   H    C    N    Ru
     6   121     8     1
Selective dynamics
Direct
  0.4414798448996349  0.4058419967567813  0.1337823545156306   T   T   T
  0.5488409132299547  0.4582949395704360  0.1390654360984522   T   T   T
  0.4420433967958453  0.5318367912088561  0.1369690908737875   T   T   T
  0.6234870689222524  0.6083965490296702  0.1391122224563458   T   T   T
  0.5671044521915947  0.6096441646475735  0.2078802630883319   T   T   T
  0.5717200351364076  0.6608179165782260  0.1335145759209260   T   T   T
  0.4963193801407286  0.4604702221044542  0.1248351982989887   T   T   T
  0.4978199583646927  0.5338718784210646  0.1275758121815244   T   T   T
  0.5688700905744790  0.6072106463192113  0.1527769615301436   T   T   T
  0.0209019790029703  0.9790900413685376  0.0004998600553032   T   T   T
  0.1037761867312634  0.0199517316858648  0.0002309776233020   T   T   T
  0.1457533715762365  0.9784857940674750  0.0003054649325444   T   T   T
  0.2289105703312156  0.0199474979271610 -0.0003335711536780   T   T   T
  0.2708321672253015  0.9784001548757998 -0.0001017010659030   T   T   T
  0.3540678885244904  0.0201762576088429 -0.0003790216661228   T   T   T
  0.3959274955917138  0.9784303467270794 -0.0000200160407994   T   T   T
  0.4792137608484122  0.0210014248711759  0.0000282234924194   T   T   T
  0.5209792286960641  0.9791246050128507  0.0000787142373987   T   T   T
  0.6042607115446611  0.0216949505540462  0.0000802882622373   T   T   T
  0.6461120804605842  0.9799378974107781 -0.0002307489412088   T   T   T
  0.7293553984839865  0.0217463931351341  0.0000554397265000   T   T   T
  0.7712787680832910  0.9802009673895079 -0.0002315268863513   T   T   T
  0.8544411590784099  0.0216759680591264  0.0003932924368544   T   T   T
  0.8964215219751408  0.9802034716161482  0.0003109924877183   T   T   T
  0.9792986537836038  0.0210720848811563  0.0005041087653786   T   T   T
  0.0203944373050820  0.1042091848990748  0.0002201319329752   T   T   T
  0.1033838868803592  0.1450209292064586 -0.0005901043688552   T   T   T
  0.1447382756477498  0.1030468081672020 -0.0005408476827563   T   T   T
  0.2274137579796751  0.1442271083275961 -0.0014328126641481   T   T   T
  0.2699467396702264  0.1032948832233260 -0.0013375621676477   T   T   T
  0.3531908699208084  0.1449851292645568 -0.0018133534700465   T   T   T
  0.3951203655234518  0.1036961540146851 -0.0009768177594607   T   T   T
  0.4785990714136718  0.1466370832728732 -0.0006363789696881   T   T   T
  0.5203778329205493  0.1048623051542202 -0.0000889472702364   T   T   T
  0.6036677637538013  0.1474994006137022  0.0001953330549528   T   T   T
  0.6453915108795366  0.1054481356378469  0.0003067822014389   T   T   T
  0.7287497463093706  0.1471135036393251  0.0004712608322907   T   T   T
  0.7706259609454676  0.1052511018673312  0.0004852601497938   T   T   T
  0.8537371612396473  0.1466353354928427  0.0004794558551307   T   T   T
  0.8956407176594186  0.1048951573520115  0.0005708050327893   T   T   T
  0.9786259977277095  0.1459049941158874  0.0002954169320549   T   T   T
  0.0201300522735753  0.2292454998315224 -0.0002388659802079   T   T   T
  0.1027701462732358  0.2699838299499292 -0.0008589054712120   T   T   T
  0.1443301508059199  0.2282064723035677 -0.0012560044174317   T   T   T
  0.2266508569393157  0.2687260376909004 -0.0018931429628535   T   T   T
  0.2682411724209270  0.2273790670519545 -0.0023455515747651   T   T   T
  0.3940176681337127  0.2283601245827550 -0.0025579079641440   T   T   T
  0.4780532218613351  0.2719549517967754 -0.0011373803537695   T   T   T
  0.5193733368588740  0.2301750093100637 -0.0004955042643403   T   T   T
  0.6027769428242551  0.2739378933841261  0.0004029141023467   T   T   T
  0.6449098141864757  0.2315310396225927  0.0003204662820838   T   T   T
  0.7280055066969067  0.2724766788187734  0.0003314771893564   T   T   T
  0.7700024269074770  0.2304182202817313  0.0003453928387216   T   T   T
  0.8533431420702390  0.2716697124501321  0.0000564295620965   T   T   T
  0.8952119433597047  0.2299654122956393  0.0001402100302083   T   T   T
  0.9784656777829533  0.2711539900847066 -0.0002591960876587   T   T   T
  0.0204588758923919  0.3542234772106995 -0.0006520889564588   T   T   T
  0.1039833669136169  0.3954052728092208 -0.0007645477136584   T   T   T
  0.1453720120311710  0.3532177972333228 -0.0008726950314736   T   T   T
  0.2280710570248505  0.3939049898588806 -0.0005510260527108   T   T   T
  0.3490950685262482  0.3912523746021119  0.0023787608573734   T   T   T
  0.3910694921942275  0.3500278146105223 -0.0016399472893240   T   T   T
  0.5161316412756322  0.3550150239175091  0.0002818455363203   T   T   T
  0.6432557043530263  0.3571684810595672  0.0010620485068535   T   T   T
  0.7268022642719206  0.3979131606543017  0.0003361077705646   T   T   T
  0.7689774029372276  0.3557090954039325  0.0001398683204990   T   T   T
  0.8529884744859303  0.3967505716229876 -0.0003414697667226   T   T   T
  0.8950348744703746  0.3549711786808525 -0.0003989030382343   T   T   T
  0.9786236887682113  0.3960622485633957 -0.0006989964531020   T   T   T
  0.0210662318843539  0.4792745893866884 -0.0007193798786418   T   T   T
  0.1047187885906181  0.5204596577990918 -0.0006233235295578   T   T   T
  0.1464895505539281  0.4785148391088176 -0.0007365224949856   T   T   T
  0.2297579760630963  0.5188019325592916 -0.0004121193621379   T   T   T
  0.2712706376502203  0.4769413271438983 -0.0000435699099267   T   T   T
  0.3550969793868217  0.5166143418330194  0.0040195512736120   T   T   T
  0.6451526939609544  0.4835349354498394  0.0032905020020348   T   T   T
  0.7289071887098751  0.5231809564101284 -0.0006712376160961   T   T   T
  0.7704540255566877  0.4813138680565199 -0.0007152038332264   T   T   T
  0.8537134985696510  0.5216258358231366 -0.0008207746160734   T   T   T
  0.8954859832981794  0.4796950964823292 -0.0006295084481238   T   T   T
  0.9791484036102904  0.5208917638382433 -0.0006876717148820   T   T   T
  0.0215757788673765  0.6040893545445013 -0.0006119555170115   T   T   T
  0.1051698112866392  0.6451720354249474 -0.0003272428553440   T   T   T
  0.1472209328295619  0.6033984178815639 -0.0002920990771886   T   T   T
  0.2312444080647218  0.6444319608599051  0.0002383142067038   T   T   T
  0.2734255539096523  0.6022393088652563  0.0005575596858943   T   T   T
  0.3569622402354950  0.6429668602490821  0.0013004186377476   T   T   T
  0.4840607219992801  0.6451211408977786  0.0001424628756482   T   T   T
  0.6091913087943658  0.6500827223506513 -0.0031385408501190   T   T   T
  0.6511477512416327  0.6088871672914649  0.0005433891034410   T   T   T
  0.7721396005935088  0.6062808998209847 -0.0011427535430302   T   T   T
  0.8548263689612565  0.6469558335995588 -0.0010474472317421   T   T   T
  0.8962114612706223  0.6047574574945769 -0.0007742874903360   T   T   T
  0.9797155293942813  0.6459275712915172 -0.0005285294184760   T   T   T
  0.0217280988429103  0.7290145482431716 -0.0000972839181015   T   T   T
  0.1049905041363996  0.7701944669181553  0.0002415014246572   T   T   T
  0.1468605695258869  0.7284845871731114  0.0001167109284476   T   T   T
  0.2301887288368182  0.7697239058384548  0.0003534558821321   T   T   T
  0.2721946973468011  0.7276629847879460  0.0003997005011141   T   T   T
  0.3552914791524149  0.7686065567365542  0.0004265562088699   T   T   T
  0.3974519824196127  0.7262185762732821  0.0005600226280825   T   T   T
  0.4808427683684385  0.7699680237227271 -0.0004232189144430   T   T   T
  0.5221459297202790  0.7281307914837124 -0.0013303103264327   T   T   T
  0.6062106804233949  0.7717662119288317 -0.0030723669312057   T   T   T
  0.7319520839789384  0.7727712114641125 -0.0031348873837736   T   T   T
  0.7735648908869109  0.7314442243220104 -0.0025699043298231   T   T   T
  0.8558710150284019  0.7719609572651244 -0.0014128306334873   T   T   T
  0.8974210005397253  0.7301854055067939 -0.0008912177958214   T   T   T
  0.9800715528677417  0.7709214091395595 -0.0001025372200383   T   T   T
  0.0215724137641457  0.8542651748239771  0.0003966685471004   T   T   T
  0.1045566362764362  0.8952733948138970  0.0005597872730271   T   T   T
  0.1464637517850901  0.8535300695522813  0.0004724851813207   T   T   T
  0.2295744149644296  0.8948972212585474  0.0003794389790472   T   T   T
  0.2714509677837088  0.8530368218132397  0.0004087888233084   T   T   T
  0.3548012740161699  0.8946818495367513  0.0002538321324714   T   T   T
  0.3965338674040855  0.8526392065395167  0.0002539553912067   T   T   T
  0.4798136538009318  0.8952619491735462  0.0000049211160735   T   T   T
  0.5216036935166060  0.8534872156259470 -0.0005441775604417   T   T   T
  0.6050814863508839  0.8964341449505644 -0.0009030314681486   T   T   T
  0.6470063159910673  0.8551321666809054 -0.0019516109815134   T   T   T
  0.7302497586663670  0.8968447045817256 -0.0014341151641569   T   T   T
  0.7727810648379666  0.8559232114807789 -0.0016836139221756   T   T   T
  0.8554541984765693  0.8971031820789088 -0.0005273056328015   T   T   T
  0.8968136344832296  0.8551440987977621 -0.0005607439716342   T   T   T
  0.9798021178812731  0.8959574030928076  0.0003071433976594   T   T   T
  0.3509493411295315  0.2677804910855943 -0.0031962909378823   T   T   T
  0.6492725854436906  0.7323550640009499 -0.0043797311293761   T   T   T
  0.2672258147130749  0.3504237465481377 -0.0011704038010285   T   T   T
  0.4724554594093907  0.3914520948790284 -0.0001252112963989   T   T   T
  0.6006230000227809  0.4005579136599427  0.0022695261009731   T   T   T
  0.3887975751559756  0.4708778088149366  0.0109523799708967   T   T   T
  0.6114086315797063  0.5292873601196915  0.0100447184887188   T   T   T
  0.3996374687288811  0.5996093845296924  0.0025760810322149   T   T   T
  0.5277951019773301  0.6085900412595022 -0.0004386458104473   T   T   T
  0.7329976696251852  0.6497153203702440 -0.0022602374151839   T   T   T
  0.5001607736072720  0.5001572323560519  0.0248716842969802   T   T   T
 
  0.00000000E+00  0.00000000E+00  0.00000000E+00
  0.00000000E+00  0.00000000E+00  0.00000000E+00
  0.00000000E+00  0.00000000E+00  0.00000000E+00
  0.00000000E+00  0.00000000E+00  0.00000000E+00
  0.00000000E+00  0.00000000E+00  0.00000000E+00
  0.00000000E+00  0.00000000E+00  0.00000000E+00
  0.00000000E+00  0.00000000E+00  0.00000000E+00
  0.00000000E+00  0.00000000E+00  0.00000000E+00
  0.00000000E+00  0.00000000E+00  0.00000000E+00
  0.00000000E+00  0.00000000E+00  0.00000000E+00
  0.00000000E+00  0.00000000E+00  0.00000000E+00
  0.00000000E+00  0.00000000E+00  0.00000000E+00
  0.00000000E+00  0.00000000E+00  0.00000000E+00
  0.00000000E+00  0.00000000E+00  0.00000000E+00
  0.00000000E+00  0.00000000E+00  0.00000000E+00
  0.00000000E+00  0.00000000E+00  0.00000000E+00
  0.00000000E+00  0.00000000E+00  0.00000000E+00
  0.00000000E+00  0.00000000E+00  0.00000000E+00
  0.00000000E+00  0.00000000E+00  0.00000000E+00
  0.00000000E+00  0.00000000E+00  0.00000000E+00
  0.00000000E+00  0.00000000E+00  0.00000000E+00
  0.00000000E+00  0.00000000E+00  0.00000000E+00
  0.00000000E+00  0.00000000E+00  0.00000000E+00
  0.00000000E+00  0.00000000E+00  0.00000000E+00
  0.00000000E+00  0.00000000E+00  0.00000000E+00
  0.00000000E+00  0.00000000E+00  0.00000000E+00
  0.00000000E+00  0.00000000E+00  0.00000000E+00
  0.00000000E+00  0.00000000E+00  0.00000000E+00
  0.00000000E+00  0.00000000E+00  0.00000000E+00
  0.00000000E+00  0.00000000E+00  0.00000000E+00
  0.00000000E+00  0.00000000E+00  0.00000000E+00
  0.00000000E+00  0.00000000E+00  0.00000000E+00
  0.00000000E+00  0.00000000E+00  0.00000000E+00
  0.00000000E+00  0.00000000E+00  0.00000000E+00
  0.00000000E+00  0.00000000E+00  0.00000000E+00
  0.00000000E+00  0.00000000E+00  0.00000000E+00
  0.00000000E+00  0.00000000E+00  0.00000000E+00
  0.00000000E+00  0.00000000E+00  0.00000000E+00
  0.00000000E+00  0.00000000E+00  0.00000000E+00
  0.00000000E+00  0.00000000E+00  0.00000000E+00
  0.00000000E+00  0.00000000E+00  0.00000000E+00
  0.00000000E+00  0.00000000E+00  0.00000000E+00
  0.00000000E+00  0.00000000E+00  0.00000000E+00
  0.00000000E+00  0.00000000E+00  0.00000000E+00
  0.00000000E+00  0.00000000E+00  0.00000000E+00
  0.00000000E+00  0.00000000E+00  0.00000000E+00
  0.00000000E+00  0.00000000E+00  0.00000000E+00
  0.00000000E+00  0.00000000E+00  0.00000000E+00
  0.00000000E+00  0.00000000E+00  0.00000000E+00
  0.00000000E+00  0.00000000E+00  0.00000000E+00
  0.00000000E+00  0.00000000E+00  0.00000000E+00
  0.00000000E+00  0.00000000E+00  0.00000000E+00
  0.00000000E+00  0.00000000E+00  0.00000000E+00
  0.00000000E+00  0.00000000E+00  0.00000000E+00
  0.00000000E+00  0.00000000E+00  0.00000000E+00
  0.00000000E+00  0.00000000E+00  0.00000000E+00
  0.00000000E+00  0.00000000E+00  0.00000000E+00
  0.00000000E+00  0.00000000E+00  0.00000000E+00
  0.00000000E+00  0.00000000E+00  0.00000000E+00
  0.00000000E+00  0.00000000E+00  0.00000000E+00
  0.00000000E+00  0.00000000E+00  0.00000000E+00
  0.00000000E+00  0.00000000E+00  0.00000000E+00
  0.00000000E+00  0.00000000E+00  0.00000000E+00
  0.00000000E+00  0.00000000E+00  0.00000000E+00
  0.00000000E+00  0.00000000E+00  0.00000000E+00
  0.00000000E+00  0.00000000E+00  0.00000000E+00
  0.00000000E+00  0.00000000E+00  0.00000000E+00
  0.00000000E+00  0.00000000E+00  0.00000000E+00
  0.00000000E+00  0.00000000E+00  0.00000000E+00
  0.00000000E+00  0.00000000E+00  0.00000000E+00
  0.00000000E+00  0.00000000E+00  0.00000000E+00
  0.00000000E+00  0.00000000E+00  0.00000000E+00
  0.00000000E+00  0.00000000E+00  0.00000000E+00
  0.00000000E+00  0.00000000E+00  0.00000000E+00
  0.00000000E+00  0.00000000E+00  0.00000000E+00
  0.00000000E+00  0.00000000E+00  0.00000000E+00
  0.00000000E+00  0.00000000E+00  0.00000000E+00
  0.00000000E+00  0.00000000E+00  0.00000000E+00
  0.00000000E+00  0.00000000E+00  0.00000000E+00
  0.00000000E+00  0.00000000E+00  0.00000000E+00
  0.00000000E+00  0.00000000E+00  0.00000000E+00
  0.00000000E+00  0.00000000E+00  0.00000000E+00
  0.00000000E+00  0.00000000E+00  0.00000000E+00
  0.00000000E+00  0.00000000E+00  0.00000000E+00
  0.00000000E+00  0.00000000E+00  0.00000000E+00
  0.00000000E+00  0.00000000E+00  0.00000000E+00
  0.00000000E+00  0.00000000E+00  0.00000000E+00
  0.00000000E+00  0.00000000E+00  0.00000000E+00
  0.00000000E+00  0.00000000E+00  0.00000000E+00
  0.00000000E+00  0.00000000E+00  0.00000000E+00
  0.00000000E+00  0.00000000E+00  0.00000000E+00
  0.00000000E+00  0.00000000E+00  0.00000000E+00
  0.00000000E+00  0.00000000E+00  0.00000000E+00
  0.00000000E+00  0.00000000E+00  0.00000000E+00
  0.00000000E+00  0.00000000E+00  0.00000000E+00
  0.00000000E+00  0.00000000E+00  0.00000000E+00
  0.00000000E+00  0.00000000E+00  0.00000000E+00
  0.00000000E+00  0.00000000E+00  0.00000000E+00
  0.00000000E+00  0.00000000E+00  0.00000000E+00
  0.00000000E+00  0.00000000E+00  0.00000000E+00
  0.00000000E+00  0.00000000E+00  0.00000000E+00
  0.00000000E+00  0.00000000E+00  0.00000000E+00
  0.00000000E+00  0.00000000E+00  0.00000000E+00
  0.00000000E+00  0.00000000E+00  0.00000000E+00
  0.00000000E+00  0.00000000E+00  0.00000000E+00
  0.00000000E+00  0.00000000E+00  0.00000000E+00
  0.00000000E+00  0.00000000E+00  0.00000000E+00
  0.00000000E+00  0.00000000E+00  0.00000000E+00
  0.00000000E+00  0.00000000E+00  0.00000000E+00
  0.00000000E+00  0.00000000E+00  0.00000000E+00
  0.00000000E+00  0.00000000E+00  0.00000000E+00
  0.00000000E+00  0.00000000E+00  0.00000000E+00
  0.00000000E+00  0.00000000E+00  0.00000000E+00
  0.00000000E+00  0.00000000E+00  0.00000000E+00
  0.00000000E+00  0.00000000E+00  0.00000000E+00
  0.00000000E+00  0.00000000E+00  0.00000000E+00
  0.00000000E+00  0.00000000E+00  0.00000000E+00
  0.00000000E+00  0.00000000E+00  0.00000000E+00
  0.00000000E+00  0.00000000E+00  0.00000000E+00
  0.00000000E+00  0.00000000E+00  0.00000000E+00
  0.00000000E+00  0.00000000E+00  0.00000000E+00
  0.00000000E+00  0.00000000E+00  0.00000000E+00
  0.00000000E+00  0.00000000E+00  0.00000000E+00
  0.00000000E+00  0.00000000E+00  0.00000000E+00
  0.00000000E+00  0.00000000E+00  0.00000000E+00
  0.00000000E+00  0.00000000E+00  0.00000000E+00
  0.00000000E+00  0.00000000E+00  0.00000000E+00
  0.00000000E+00  0.00000000E+00  0.00000000E+00
  0.00000000E+00  0.00000000E+00  0.00000000E+00
  0.00000000E+00  0.00000000E+00  0.00000000E+00
  0.00000000E+00  0.00000000E+00  0.00000000E+00
  0.00000000E+00  0.00000000E+00  0.00000000E+00
  0.00000000E+00  0.00000000E+00  0.00000000E+00
  0.00000000E+00  0.00000000E+00  0.00000000E+00
  0.00000000E+00  0.00000000E+00  0.00000000E+00
  0.00000000E+00  0.00000000E+00  0.00000000E+00
