RuN14                                   
   1.00000000000000     
    17.0990259999999985   -9.8721239999999995    0.0000000000000000
     0.0000000000000000   19.7442530000000005    0.0000000000000000
     0.0000000000000000    0.0000000000000000   20.0000000000000000
   C    N    Ru
   112    14     1
Selective dynamics
Direct
  0.0209489658215375  0.9790838042220955  0.0000000000000000   T   T   T
  0.1040800688875519  0.0202741340004094  0.0000000000000000   T   T   T
  0.1459365772627047  0.9787165330778033  0.0000000000000000   T   T   T
  0.2293738146396278  0.0205349166968507  0.0000000000000000   T   T   T
  0.2709957257609293  0.9784545266683219  0.0000000000000000   T   T   T
  0.3542525086951430  0.0204202817933372  0.0000000000000000   T   T   T
  0.3959249440736852  0.9784138941654290  0.0000000000000000   T   T   T
  0.4792004095990481  0.0210894648249567  0.0000000000000000   T   T   T
  0.5208117065261454  0.9789682367690763  0.0000000000000000   T   T   T
  0.6040864299781523  0.0216458303834414  0.0000000000000000   T   T   T
  0.6457599194534542  0.9796411565268682  0.0000000000000000   T   T   T
  0.7290163249727585  0.0216075275156036  0.0000000000000000   T   T   T
  0.7706360614806852  0.9795217101223331  0.0000000000000000   T   T   T
  0.8540736735123770  0.0213375932127643  0.0000000000000000   T   T   T
  0.8959317051893216  0.9797800989486086  0.0000000000000000   T   T   T
  0.9790633194855776  0.0209704298120449  0.0000000000000000   T   T   T
  0.0202539135935423  0.1041014778183770  0.0000000000000000   T   T   T
  0.1036163138566406  0.1453283437477131  0.0000000000000000   T   T   T
  0.1453073138626425  0.1036368339583091  0.0000000000000000   T   T   T
  0.2282157516367338  0.1450278605905462  0.0000000000000000   T   T   T
  0.2704050280922924  0.1037833592230304  0.0000000000000000   T   T   T
  0.3540230483373824  0.1459289097574907  0.0000000000000000   T   T   T
  0.3951829563407243  0.1038879200966317  0.0000000000000000   T   T   T
  0.4784299404546566  0.1471380009968631  0.0000000000000000   T   T   T
  0.5202383366552118  0.1049832637280842  0.0000000000000000   T   T   T
  0.6033117710082894  0.1476197008293396  0.0000000000000000   T   T   T
  0.6451417394634251  0.1053900412311038  0.0000000000000000   T   T   T
  0.7283366554591798  0.1471032922850253  0.0000000000000000   T   T   T
  0.7701913066840146  0.1050468458287181  0.0000000000000000   T   T   T
  0.8535391414317549  0.1464955244915726  0.0000000000000000   T   T   T
  0.8953413258464221  0.1046923696306482  0.0000000000000000   T   T   T
  0.9786961581458049  0.1459584540202226  0.0000000000000000   T   T   T
  0.0205135057317540  0.2293958726309342  0.0000000000000000   T   T   T
  0.1037619722072278  0.2704261682946351  0.0000000000000000   T   T   T
  0.1450062588862473  0.2282372277912936  0.0000000000000000   T   T   T
  0.2279470787971203  0.2692721077647662  0.0000000000000000   T   T   T
  0.2692508466547594  0.2279682022060359  0.0000000000000000   T   T   T
  0.3945615827646191  0.2288131080069478  0.0000000000000000   T   T   T
  0.5187619736878324  0.2298995837417128  0.0000000000000000   T   T   T
  0.6015698013431154  0.2740634383930750  0.0000000000000000   T   T   T
  0.6438624431797365  0.2313837007870654  0.0000000000000000   T   T   T
  0.7273120730179606  0.2727234537918686  0.0000000000000000   T   T   T
  0.7694074152470397  0.2306270885248226  0.0000000000000000   T   T   T
  0.8529325340318227  0.2716993059927075  0.0000000000000000   T   T   T
  0.8949894152870993  0.2298438029825663  0.0000000000000000   T   T   T
  0.9784313697547531  0.2710187842310920  0.0000000000000000   T   T   T
  0.0203966001354386  0.3542746088047939  0.0000000000000000   T   T   T
  0.1038654731814006  0.3952036885092741  0.0000000000000000   T   T   T
  0.1459068468408958  0.3540441151889250  0.0000000000000000   T   T   T
  0.2287912450770517  0.3945843467721072  0.0000000000000000   T   T   T
  0.3495354036273483  0.3905950216697663  0.0000000000000000   T   T   T
  0.3905735494476297  0.3495561856439843  0.0000000000000000   T   T   T
  0.5160732126432036  0.3554016591817146  0.0000000000000000   T   T   T
  0.6428802072132436  0.3571541645578251  0.0000000000000000   T   T   T
  0.7259711956171468  0.3984648342235778  0.0000000000000000   T   T   T
  0.7686513185208196  0.3561724485662232  0.0000000000000000   T   T   T
  0.8524157945461741  0.3967240965064032  0.0000000000000000   T   T   T
  0.8946450978907639  0.3548942554261215  0.0000000000000000   T   T   T
  0.9783907758946297  0.3959471142896053  0.0000000000000000   T   T   T
  0.0210678811075967  0.4792217623565324  0.0000000000000000   T   T   T
  0.1049616580405484  0.5202588500138963  0.0000000000000000   T   T   T
  0.1471169711500087  0.4784506072464023  0.0000000000000000   T   T   T
  0.2298785146040735  0.5187830507656971  0.0000000000000000   T   T   T
  0.3553801471013420  0.5160945693683281  0.0000000000000000   T   T   T
  0.6446322468193380  0.4839616386145433  0.0000000000000000   T   T   T
  0.7701346424073113  0.4812729332326667  0.0000000000000000   T   T   T
  0.8528962754669671  0.5216042432277409  0.0000000000000000   T   T   T
  0.8950524974381278  0.4797968443112577  0.0000000000000000   T   T   T
  0.9789456533173634  0.5208326246372457  0.0000000000000000   T   T   T
  0.0216207198101618  0.6041083999799903  0.0000000000000000   T   T   T
  0.1053673970626504  0.6451639276040524  0.0000000000000000   T   T   T
  0.1475982524944007  0.6033336141805092  0.0000000000000000   T   T   T
  0.2313620470596464  0.6438836265077229  0.0000000000000000   T   T   T
  0.2740431115742498  0.6015919199078948  0.0000000000000000   T   T   T
  0.3571332066496302  0.6429016456370145  0.0000000000000000   T   T   T
  0.4839392591449881  0.6446536879207405  0.0000000000000000   T   T   T
  0.6094409958276293  0.6505015578598137  0.0000000000000000   T   T   T
  0.6504782984314003  0.6094611024341937  0.0000000000000000   T   T   T
  0.7712210996142199  0.6054730788293372  0.0000000000000000   T   T   T
  0.8541052508834829  0.6460106740020938  0.0000000000000000   T   T   T
  0.8961458551523951  0.6048504968916815  0.0000000000000000   T   T   T
  0.9796152732986799  0.6457818519688171  0.0000000000000000   T   T   T
  0.0215826915035333  0.7290400880130146  0.0000000000000000   T   T   T
  0.1050239410978511  0.7702124841980575  0.0000000000000000   T   T   T
  0.1470816312564537  0.7283588634610991  0.0000000000000000   T   T   T
  0.2306051111770498  0.7694293629410448  0.0000000000000000   T   T   T
  0.2727030655180085  0.7273341573838968  0.0000000000000000   T   T   T
  0.3561516550566989  0.7686742069825944  0.0000000000000000   T   T   T
  0.3984436268538448  0.7259929273218967  0.0000000000000000   T   T   T
  0.4812512975691587  0.7701574471899766  0.0000000000000000   T   T   T
  0.6054501767059225  0.7712434672395112  0.0000000000000000   T   T   T
  0.7307638999443338  0.7720900786781724  0.0000000000000000   T   T   T
  0.7720670784944497  0.7307852041793456  0.0000000000000000   T   T   T
  0.8550065708002789  0.7718200089766903  0.0000000000000000   T   T   T
  0.8962500730992721  0.7296280463118900  0.0000000000000000   T   T   T
  0.9794986342125021  0.7706587253432219  0.0000000000000000   T   T   T
  0.0213153182556644  0.8540954407878715  0.0000000000000000   T   T   T
  0.1046698020604722  0.8953621798648461  0.0000000000000000   T   T   T
  0.1464726125244665  0.8535611418614550  0.0000000000000000   T   T   T
  0.2298221360352751  0.8950112078282164  0.0000000000000000   T   T   T
  0.2716775791175461  0.8529538785007493  0.0000000000000000   T   T   T
  0.3548719651127601  0.8946674629337552  0.0000000000000000   T   T   T
  0.3967032228434804  0.8524380695934857  0.0000000000000000   T   T   T
  0.4797766050488719  0.8950744075521352  0.0000000000000000   T   T   T
  0.5215844788301035  0.8529185891985286  0.0000000000000000   T   T   T
  0.6048301096209702  0.8961701543684590  0.0000000000000000   T   T   T
  0.6459894117985701  0.8541283478230569  0.0000000000000000   T   T   T
  0.7296066322958988  0.8962729810110165  0.0000000000000000   T   T   T
  0.7717963223405228  0.8550286982497229  0.0000000000000000   T   T   T
  0.8547050973831338  0.8964186449073942  0.0000000000000000   T   T   T
  0.8963959679567991  0.8547267623864088  0.0000000000000000   T   T   T
  0.9797582021605571  0.8959525371021153  0.0000000000000000   T   T   T
  0.3518143158314139  0.2673469555965228  0.0000000000000000   T   T   T
  0.4769829391703611  0.2720495313880309  0.0000000000000000   T   T   T
  0.2673257165421792  0.3518360993773252  0.0000000000000000   T   T   T
  0.4712395632136921  0.3892523031105594  0.0000000000000000   T   T   T
  0.5998603504847901  0.4001742952533205  0.0000000000000000   T   T   T
  0.2720284971360142  0.4770051209445095  0.0000000000000000   T   T   T
  0.3892308451025983  0.4712605965647433  0.0000000000000000   T   T   T
  0.6107823900974957  0.5287954877331830  0.0000000000000000   T   T   T
  0.7279847122998800  0.5230517011663339  0.0000000000000000   T   T   T
  0.4001527757719729  0.5998815237388212  0.0000000000000000   T   T   T
  0.5287738378737248  0.6108039732952283  0.0000000000000000   T   T   T
  0.7326878400484668  0.6482208608929091  0.0000000000000000   T   T   T
  0.5230296725423742  0.7280060727281588  0.0000000000000000   T   T   T
  0.6481987229050685  0.7327095985281153  0.0000000000000000   T   T   T
  0.5000068024152213  0.5000278785408737  0.0000000000000000   T   T   T
 
  0.00000000E+00  0.00000000E+00  0.00000000E+00
  0.00000000E+00  0.00000000E+00  0.00000000E+00
  0.00000000E+00  0.00000000E+00  0.00000000E+00
  0.00000000E+00  0.00000000E+00  0.00000000E+00
  0.00000000E+00  0.00000000E+00  0.00000000E+00
  0.00000000E+00  0.00000000E+00  0.00000000E+00
  0.00000000E+00  0.00000000E+00  0.00000000E+00
  0.00000000E+00  0.00000000E+00  0.00000000E+00
  0.00000000E+00  0.00000000E+00  0.00000000E+00
  0.00000000E+00  0.00000000E+00  0.00000000E+00
  0.00000000E+00  0.00000000E+00  0.00000000E+00
  0.00000000E+00  0.00000000E+00  0.00000000E+00
  0.00000000E+00  0.00000000E+00  0.00000000E+00
  0.00000000E+00  0.00000000E+00  0.00000000E+00
  0.00000000E+00  0.00000000E+00  0.00000000E+00
  0.00000000E+00  0.00000000E+00  0.00000000E+00
  0.00000000E+00  0.00000000E+00  0.00000000E+00
  0.00000000E+00  0.00000000E+00  0.00000000E+00
  0.00000000E+00  0.00000000E+00  0.00000000E+00
  0.00000000E+00  0.00000000E+00  0.00000000E+00
  0.00000000E+00  0.00000000E+00  0.00000000E+00
  0.00000000E+00  0.00000000E+00  0.00000000E+00
  0.00000000E+00  0.00000000E+00  0.00000000E+00
  0.00000000E+00  0.00000000E+00  0.00000000E+00
  0.00000000E+00  0.00000000E+00  0.00000000E+00
  0.00000000E+00  0.00000000E+00  0.00000000E+00
  0.00000000E+00  0.00000000E+00  0.00000000E+00
  0.00000000E+00  0.00000000E+00  0.00000000E+00
  0.00000000E+00  0.00000000E+00  0.00000000E+00
  0.00000000E+00  0.00000000E+00  0.00000000E+00
  0.00000000E+00  0.00000000E+00  0.00000000E+00
  0.00000000E+00  0.00000000E+00  0.00000000E+00
  0.00000000E+00  0.00000000E+00  0.00000000E+00
  0.00000000E+00  0.00000000E+00  0.00000000E+00
  0.00000000E+00  0.00000000E+00  0.00000000E+00
  0.00000000E+00  0.00000000E+00  0.00000000E+00
  0.00000000E+00  0.00000000E+00  0.00000000E+00
  0.00000000E+00  0.00000000E+00  0.00000000E+00
  0.00000000E+00  0.00000000E+00  0.00000000E+00
  0.00000000E+00  0.00000000E+00  0.00000000E+00
  0.00000000E+00  0.00000000E+00  0.00000000E+00
  0.00000000E+00  0.00000000E+00  0.00000000E+00
  0.00000000E+00  0.00000000E+00  0.00000000E+00
  0.00000000E+00  0.00000000E+00  0.00000000E+00
  0.00000000E+00  0.00000000E+00  0.00000000E+00
  0.00000000E+00  0.00000000E+00  0.00000000E+00
  0.00000000E+00  0.00000000E+00  0.00000000E+00
  0.00000000E+00  0.00000000E+00  0.00000000E+00
  0.00000000E+00  0.00000000E+00  0.00000000E+00
  0.00000000E+00  0.00000000E+00  0.00000000E+00
  0.00000000E+00  0.00000000E+00  0.00000000E+00
  0.00000000E+00  0.00000000E+00  0.00000000E+00
  0.00000000E+00  0.00000000E+00  0.00000000E+00
  0.00000000E+00  0.00000000E+00  0.00000000E+00
  0.00000000E+00  0.00000000E+00  0.00000000E+00
  0.00000000E+00  0.00000000E+00  0.00000000E+00
  0.00000000E+00  0.00000000E+00  0.00000000E+00
  0.00000000E+00  0.00000000E+00  0.00000000E+00
  0.00000000E+00  0.00000000E+00  0.00000000E+00
  0.00000000E+00  0.00000000E+00  0.00000000E+00
  0.00000000E+00  0.00000000E+00  0.00000000E+00
  0.00000000E+00  0.00000000E+00  0.00000000E+00
  0.00000000E+00  0.00000000E+00  0.00000000E+00
  0.00000000E+00  0.00000000E+00  0.00000000E+00
  0.00000000E+00  0.00000000E+00  0.00000000E+00
  0.00000000E+00  0.00000000E+00  0.00000000E+00
  0.00000000E+00  0.00000000E+00  0.00000000E+00
  0.00000000E+00  0.00000000E+00  0.00000000E+00
  0.00000000E+00  0.00000000E+00  0.00000000E+00
  0.00000000E+00  0.00000000E+00  0.00000000E+00
  0.00000000E+00  0.00000000E+00  0.00000000E+00
  0.00000000E+00  0.00000000E+00  0.00000000E+00
  0.00000000E+00  0.00000000E+00  0.00000000E+00
  0.00000000E+00  0.00000000E+00  0.00000000E+00
  0.00000000E+00  0.00000000E+00  0.00000000E+00
  0.00000000E+00  0.00000000E+00  0.00000000E+00
  0.00000000E+00  0.00000000E+00  0.00000000E+00
  0.00000000E+00  0.00000000E+00  0.00000000E+00
  0.00000000E+00  0.00000000E+00  0.00000000E+00
  0.00000000E+00  0.00000000E+00  0.00000000E+00
  0.00000000E+00  0.00000000E+00  0.00000000E+00
  0.00000000E+00  0.00000000E+00  0.00000000E+00
  0.00000000E+00  0.00000000E+00  0.00000000E+00
  0.00000000E+00  0.00000000E+00  0.00000000E+00
  0.00000000E+00  0.00000000E+00  0.00000000E+00
  0.00000000E+00  0.00000000E+00  0.00000000E+00
  0.00000000E+00  0.00000000E+00  0.00000000E+00
  0.00000000E+00  0.00000000E+00  0.00000000E+00
  0.00000000E+00  0.00000000E+00  0.00000000E+00
  0.00000000E+00  0.00000000E+00  0.00000000E+00
  0.00000000E+00  0.00000000E+00  0.00000000E+00
  0.00000000E+00  0.00000000E+00  0.00000000E+00
  0.00000000E+00  0.00000000E+00  0.00000000E+00
  0.00000000E+00  0.00000000E+00  0.00000000E+00
  0.00000000E+00  0.00000000E+00  0.00000000E+00
  0.00000000E+00  0.00000000E+00  0.00000000E+00
  0.00000000E+00  0.00000000E+00  0.00000000E+00
  0.00000000E+00  0.00000000E+00  0.00000000E+00
  0.00000000E+00  0.00000000E+00  0.00000000E+00
  0.00000000E+00  0.00000000E+00  0.00000000E+00
  0.00000000E+00  0.00000000E+00  0.00000000E+00
  0.00000000E+00  0.00000000E+00  0.00000000E+00
  0.00000000E+00  0.00000000E+00  0.00000000E+00
  0.00000000E+00  0.00000000E+00  0.00000000E+00
  0.00000000E+00  0.00000000E+00  0.00000000E+00
  0.00000000E+00  0.00000000E+00  0.00000000E+00
  0.00000000E+00  0.00000000E+00  0.00000000E+00
  0.00000000E+00  0.00000000E+00  0.00000000E+00
  0.00000000E+00  0.00000000E+00  0.00000000E+00
  0.00000000E+00  0.00000000E+00  0.00000000E+00
  0.00000000E+00  0.00000000E+00  0.00000000E+00
  0.00000000E+00  0.00000000E+00  0.00000000E+00
  0.00000000E+00  0.00000000E+00  0.00000000E+00
  0.00000000E+00  0.00000000E+00  0.00000000E+00
  0.00000000E+00  0.00000000E+00  0.00000000E+00
  0.00000000E+00  0.00000000E+00  0.00000000E+00
  0.00000000E+00  0.00000000E+00  0.00000000E+00
  0.00000000E+00  0.00000000E+00  0.00000000E+00
  0.00000000E+00  0.00000000E+00  0.00000000E+00
  0.00000000E+00  0.00000000E+00  0.00000000E+00
  0.00000000E+00  0.00000000E+00  0.00000000E+00
  0.00000000E+00  0.00000000E+00  0.00000000E+00
  0.00000000E+00  0.00000000E+00  0.00000000E+00
  0.00000000E+00  0.00000000E+00  0.00000000E+00
  0.00000000E+00  0.00000000E+00  0.00000000E+00
  0.00000000E+00  0.00000000E+00  0.00000000E+00
  0.00000000E+00  0.00000000E+00  0.00000000E+00
