RuN13                                   
   1.00000000000000     
    17.0990259999999985   -9.8721239999999995    0.0000000000000000
     0.0000000000000000   19.7442530000000005    0.0000000000000000
     0.0000000000000000    0.0000000000000000   20.0000000000000000
   C    N    Ru
   113    13     1
Selective dynamics
Direct
  0.0211460880660198  0.9793498024158446  0.0000000000000000   T   T   T
  0.1042500818941562  0.0204896262137742  0.0000000000000000   T   T   T
  0.1459983240646346  0.9788658260832921  0.0000000000000000   T   T   T
  0.2293706966906028  0.0205910193583574  0.0000000000000000   T   T   T
  0.2709899103906260  0.9785131143769061  0.0000000000000000   T   T   T
  0.3541911730932581  0.0204297916751871  0.0000000000000000   T   T   T
  0.3958926662668124  0.9783790702924550  0.0000000000000000   T   T   T
  0.4791636762949605  0.0209493582254883  0.0000000000000000   T   T   T
  0.5208012451489084  0.9788112355759248  0.0000000000000000   T   T   T
  0.6041259590139265  0.0215286424839935  0.0000000000000000   T   T   T
  0.6458768149895963  0.9794804050133035  0.0000000000000000   T   T   T
  0.7291548264902129  0.0215462451968355  0.0000000000000000   T   T   T
  0.7708125644205175  0.9797848552693487  0.0000000000000000   T   T   T
  0.8541817366814449  0.0215476067871638  0.0000000000000000   T   T   T
  0.8963341739481835  0.9801757220236340  0.0000000000000000   T   T   T
  0.9793571224186162  0.0212937046840690  0.0000000000000000   T   T   T
  0.0204707536732008  0.1043782323259361  0.0000000000000000   T   T   T
  0.1037330000843615  0.1454912228227039  0.0000000000000000   T   T   T
  0.1453494556984743  0.1037269228253665  0.0000000000000000   T   T   T
  0.2282299008041105  0.1450700931173062  0.0000000000000000   T   T   T
  0.2703594451703247  0.1037328497824570  0.0000000000000000   T   T   T
  0.3539874381465822  0.1458643353785102  0.0000000000000000   T   T   T
  0.3951746403332916  0.1037414692249413  0.0000000000000000   T   T   T
  0.4784454847766820  0.1468619046870473  0.0000000000000000   T   T   T
  0.5203079058851325  0.1047671065653429  0.0000000000000000   T   T   T
  0.6033347378567308  0.1474112847255983  0.0000000000000000   T   T   T
  0.6451507010101099  0.1051668282062496  0.0000000000000000   T   T   T
  0.7284414543594464  0.1470604839514924  0.0000000000000000   T   T   T
  0.7703405760087839  0.1051176957585424  0.0000000000000000   T   T   T
  0.8535812736099568  0.1465563050196665  0.0000000000000000   T   T   T
  0.8954589144346442  0.1047830088784455  0.0000000000000000   T   T   T
  0.9788011909366764  0.1460855928427227  0.0000000000000000   T   T   T
  0.0205520401088528  0.2294614783429832  0.0000000000000000   T   T   T
  0.1037711656145676  0.2704611496130686  0.0000000000000000   T   T   T
  0.1451077952984310  0.2283325802873088  0.0000000000000000   T   T   T
  0.2279857653563393  0.2693488715781627  0.0000000000000000   T   T   T
  0.2692284642169592  0.2278713108734735  0.0000000000000000   T   T   T
  0.3943990778984823  0.2284609370449422  0.0000000000000000   T   T   T
  0.5187502772919977  0.2294129586875170  0.0000000000000000   T   T   T
  0.6015675648272020  0.2738954389979203  0.0000000000000000   T   T   T
  0.6439386285870791  0.2311952936850374  0.0000000000000000   T   T   T
  0.7272846045498738  0.2726253660166296  0.0000000000000000   T   T   T
  0.7694669061497850  0.2305265926833080  0.0000000000000000   T   T   T
  0.8529632851448322  0.2716766259799852  0.0000000000000000   T   T   T
  0.8950350009853114  0.2299353539231440  0.0000000000000000   T   T   T
  0.9784939991253238  0.2711140913227856  0.0000000000000000   T   T   T
  0.0204071661419737  0.3542720861334116  0.0000000000000000   T   T   T
  0.1038747336001055  0.3951768448091657  0.0000000000000000   T   T   T
  0.1458799533140880  0.3540009322836086  0.0000000000000000   T   T   T
  0.2288397752069421  0.3945371855108832  0.0000000000000000   T   T   T
  0.3497456098718041  0.3906788607610758  0.0000000000000000   T   T   T
  0.3907388307525052  0.3492677936508322  0.0000000000000000   T   T   T
  0.5157512859895491  0.3544125034103982  0.0000000000000000   T   T   T
  0.6426680911872251  0.3569580661938047  0.0000000000000000   T   T   T
  0.7258325844617369  0.3983973750054207  0.0000000000000000   T   T   T
  0.7684977657468097  0.3560824623981062  0.0000000000000000   T   T   T
  0.8523670014347370  0.3967270498641837  0.0000000000000000   T   T   T
  0.8946621072616723  0.3549594674900524  0.0000000000000000   T   T   T
  0.9783295462293813  0.3959618837399780  0.0000000000000000   T   T   T
  0.0209676608383107  0.4792579881810760  0.0000000000000000   T   T   T
  0.1048485909875322  0.5203645869911950  0.0000000000000000   T   T   T
  0.1470751029188159  0.4784886922559013  0.0000000000000000   T   T   T
  0.2296660020145086  0.5187122476659990  0.0000000000000000   T   T   T
  0.3551422727419816  0.5164035934539137  0.0000000000000000   T   T   T
  0.6442135939662287  0.4838929490342995  0.0000000000000000   T   T   T
  0.7698484826634000  0.4813150952212195  0.0000000000000000   T   T   T
  0.8526263047073277  0.5216220637055052  0.0000000000000000   T   T   T
  0.8948173502333631  0.4797335020622817  0.0000000000000000   T   T   T
  0.9787962528481275  0.5208692933479543  0.0000000000000000   T   T   T
  0.0215002302276284  0.6041074876482876  0.0000000000000000   T   T   T
  0.1051359142234804  0.6451874516592022  0.0000000000000000   T   T   T
  0.1473306545164056  0.6033642715203450  0.0000000000000000   T   T   T
  0.2311200550766869  0.6440295246768796  0.0000000000000000   T   T   T
  0.2736964886641076  0.6017243683908935  0.0000000000000000   T   T   T
  0.3567730169309058  0.6428261792375833  0.0000000000000000   T   T   T
  0.4840309734539264  0.6447838526248932  0.0000000000000000   T   T   T
  0.5285279084328813  0.6075547079379466  0.0000000000000000   T   T   T
  0.6514069514872283  0.6095339511525376  0.0000000000000000   T   T   T
  0.7714055490155871  0.6057084468790777  0.0000000000000000   T   T   T
  0.8539581751690779  0.6461522641145777  0.0000000000000000   T   T   T
  0.8961520889908475  0.6048563570162780  0.0000000000000000   T   T   T
  0.9794107039264111  0.6458022173500286  0.0000000000000000   T   T   T
  0.0216721147698830  0.7290926472635687  0.0000000000000000   T   T   T
  0.1050082313783625  0.7702977616442773  0.0000000000000000   T   T   T
  0.1469844674592285  0.7284375216805573  0.0000000000000000   T   T   T
  0.2303685853258755  0.7695560842904235  0.0000000000000000   T   T   T
  0.2724115437476979  0.7274081335914165  0.0000000000000000   T   T   T
  0.3557518494307197  0.7687001110063275  0.0000000000000000   T   T   T
  0.3978696000904927  0.7260938956651887  0.0000000000000000   T   T   T
  0.4809350222177993  0.7699756107012979  0.0000000000000000   T   T   T
  0.6050449869343172  0.7702687278943978  0.0000000000000000   T   T   T
  0.6489802548851852  0.7322949203757090  0.0000000000000000   T   T   T
  0.7316121080531265  0.7727297639494407  0.0000000000000000   T   T   T
  0.7736674453374115  0.7316737106839125  0.0000000000000000   T   T   T
  0.8555817933380405  0.7719674306137558  0.0000000000000000   T   T   T
  0.8967817026222101  0.7297387359055785  0.0000000000000000   T   T   T
  0.9797760429461163  0.7707647118782405  0.0000000000000000   T   T   T
  0.0215188605374229  0.8542649565992764  0.0000000000000000   T   T   T
  0.1046636669616959  0.8955052544008607  0.0000000000000000   T   T   T
  0.1464842475856414  0.8536338308322206  0.0000000000000000   T   T   T
  0.2297755215374626  0.8951067671208076  0.0000000000000000   T   T   T
  0.2715623983899898  0.8530298312254251  0.0000000000000000   T   T   T
  0.3548038045088541  0.8947496777953696  0.0000000000000000   T   T   T
  0.3965524551111062  0.8525242332530499  0.0000000000000000   T   T   T
  0.4796269308303596  0.8949064887116472  0.0000000000000000   T   T   T
  0.5214576420260246  0.8527806925163727  0.0000000000000000   T   T   T
  0.6050408410457345  0.8961129351361947  0.0000000000000000   T   T   T
  0.6461437374977590  0.8541267358438966  0.0000000000000000   T   T   T
  0.7296002827881983  0.8962130484461410  0.0000000000000000   T   T   T
  0.7724769169450378  0.8556273922793864  0.0000000000000000   T   T   T
  0.8553673726245649  0.8970760666738831  0.0000000000000000   T   T   T
  0.8968689488151843  0.8552870068617163  0.0000000000000000   T   T   T
  0.9799565251248473  0.8962337922876712  0.0000000000000000   T   T   T
  0.3515994999992987  0.2671431268703524  0.0000000000000000   T   T   T
  0.4771176232594955  0.2713997651305509  0.0000000000000000   T   T   T
  0.2674383222043371  0.3518109551330538  0.0000000000000000   T   T   T
  0.4708881793512839  0.3873630677791322  0.0000000000000000   T   T   T
  0.5993890362650299  0.4000507245429700  0.0000000000000000   T   T   T
  0.2717315031926303  0.4769690512032272  0.0000000000000000   T   T   T
  0.3888583376363760  0.4714956679593726  0.0000000000000000   T   T   T
  0.6105750028010204  0.5302004089341905  0.0000000000000000   T   T   T
  0.7274351782211355  0.5229227773369650  0.0000000000000000   T   T   T
  0.3991885551968729  0.6000664724500419  0.0000000000000000   T   T   T
  0.6115730556669643  0.6511171256114988  0.0000000000000000   T   T   T
  0.7326391425133582  0.6489619807596114  0.0000000000000000   T   T   T
  0.5215403389576972  0.7280502083437630  0.0000000000000000   T   T   T
  0.4990960408189711  0.5002681766141698  0.0000000000000000   T   T   T
 
  0.00000000E+00  0.00000000E+00  0.00000000E+00
  0.00000000E+00  0.00000000E+00  0.00000000E+00
  0.00000000E+00  0.00000000E+00  0.00000000E+00
  0.00000000E+00  0.00000000E+00  0.00000000E+00
  0.00000000E+00  0.00000000E+00  0.00000000E+00
  0.00000000E+00  0.00000000E+00  0.00000000E+00
  0.00000000E+00  0.00000000E+00  0.00000000E+00
  0.00000000E+00  0.00000000E+00  0.00000000E+00
  0.00000000E+00  0.00000000E+00  0.00000000E+00
  0.00000000E+00  0.00000000E+00  0.00000000E+00
  0.00000000E+00  0.00000000E+00  0.00000000E+00
  0.00000000E+00  0.00000000E+00  0.00000000E+00
  0.00000000E+00  0.00000000E+00  0.00000000E+00
  0.00000000E+00  0.00000000E+00  0.00000000E+00
  0.00000000E+00  0.00000000E+00  0.00000000E+00
  0.00000000E+00  0.00000000E+00  0.00000000E+00
  0.00000000E+00  0.00000000E+00  0.00000000E+00
  0.00000000E+00  0.00000000E+00  0.00000000E+00
  0.00000000E+00  0.00000000E+00  0.00000000E+00
  0.00000000E+00  0.00000000E+00  0.00000000E+00
  0.00000000E+00  0.00000000E+00  0.00000000E+00
  0.00000000E+00  0.00000000E+00  0.00000000E+00
  0.00000000E+00  0.00000000E+00  0.00000000E+00
  0.00000000E+00  0.00000000E+00  0.00000000E+00
  0.00000000E+00  0.00000000E+00  0.00000000E+00
  0.00000000E+00  0.00000000E+00  0.00000000E+00
  0.00000000E+00  0.00000000E+00  0.00000000E+00
  0.00000000E+00  0.00000000E+00  0.00000000E+00
  0.00000000E+00  0.00000000E+00  0.00000000E+00
  0.00000000E+00  0.00000000E+00  0.00000000E+00
  0.00000000E+00  0.00000000E+00  0.00000000E+00
  0.00000000E+00  0.00000000E+00  0.00000000E+00
  0.00000000E+00  0.00000000E+00  0.00000000E+00
  0.00000000E+00  0.00000000E+00  0.00000000E+00
  0.00000000E+00  0.00000000E+00  0.00000000E+00
  0.00000000E+00  0.00000000E+00  0.00000000E+00
  0.00000000E+00  0.00000000E+00  0.00000000E+00
  0.00000000E+00  0.00000000E+00  0.00000000E+00
  0.00000000E+00  0.00000000E+00  0.00000000E+00
  0.00000000E+00  0.00000000E+00  0.00000000E+00
  0.00000000E+00  0.00000000E+00  0.00000000E+00
  0.00000000E+00  0.00000000E+00  0.00000000E+00
  0.00000000E+00  0.00000000E+00  0.00000000E+00
  0.00000000E+00  0.00000000E+00  0.00000000E+00
  0.00000000E+00  0.00000000E+00  0.00000000E+00
  0.00000000E+00  0.00000000E+00  0.00000000E+00
  0.00000000E+00  0.00000000E+00  0.00000000E+00
  0.00000000E+00  0.00000000E+00  0.00000000E+00
  0.00000000E+00  0.00000000E+00  0.00000000E+00
  0.00000000E+00  0.00000000E+00  0.00000000E+00
  0.00000000E+00  0.00000000E+00  0.00000000E+00
  0.00000000E+00  0.00000000E+00  0.00000000E+00
  0.00000000E+00  0.00000000E+00  0.00000000E+00
  0.00000000E+00  0.00000000E+00  0.00000000E+00
  0.00000000E+00  0.00000000E+00  0.00000000E+00
  0.00000000E+00  0.00000000E+00  0.00000000E+00
  0.00000000E+00  0.00000000E+00  0.00000000E+00
  0.00000000E+00  0.00000000E+00  0.00000000E+00
  0.00000000E+00  0.00000000E+00  0.00000000E+00
  0.00000000E+00  0.00000000E+00  0.00000000E+00
  0.00000000E+00  0.00000000E+00  0.00000000E+00
  0.00000000E+00  0.00000000E+00  0.00000000E+00
  0.00000000E+00  0.00000000E+00  0.00000000E+00
  0.00000000E+00  0.00000000E+00  0.00000000E+00
  0.00000000E+00  0.00000000E+00  0.00000000E+00
  0.00000000E+00  0.00000000E+00  0.00000000E+00
  0.00000000E+00  0.00000000E+00  0.00000000E+00
  0.00000000E+00  0.00000000E+00  0.00000000E+00
  0.00000000E+00  0.00000000E+00  0.00000000E+00
  0.00000000E+00  0.00000000E+00  0.00000000E+00
  0.00000000E+00  0.00000000E+00  0.00000000E+00
  0.00000000E+00  0.00000000E+00  0.00000000E+00
  0.00000000E+00  0.00000000E+00  0.00000000E+00
  0.00000000E+00  0.00000000E+00  0.00000000E+00
  0.00000000E+00  0.00000000E+00  0.00000000E+00
  0.00000000E+00  0.00000000E+00  0.00000000E+00
  0.00000000E+00  0.00000000E+00  0.00000000E+00
  0.00000000E+00  0.00000000E+00  0.00000000E+00
  0.00000000E+00  0.00000000E+00  0.00000000E+00
  0.00000000E+00  0.00000000E+00  0.00000000E+00
  0.00000000E+00  0.00000000E+00  0.00000000E+00
  0.00000000E+00  0.00000000E+00  0.00000000E+00
  0.00000000E+00  0.00000000E+00  0.00000000E+00
  0.00000000E+00  0.00000000E+00  0.00000000E+00
  0.00000000E+00  0.00000000E+00  0.00000000E+00
  0.00000000E+00  0.00000000E+00  0.00000000E+00
  0.00000000E+00  0.00000000E+00  0.00000000E+00
  0.00000000E+00  0.00000000E+00  0.00000000E+00
  0.00000000E+00  0.00000000E+00  0.00000000E+00
  0.00000000E+00  0.00000000E+00  0.00000000E+00
  0.00000000E+00  0.00000000E+00  0.00000000E+00
  0.00000000E+00  0.00000000E+00  0.00000000E+00
  0.00000000E+00  0.00000000E+00  0.00000000E+00
  0.00000000E+00  0.00000000E+00  0.00000000E+00
  0.00000000E+00  0.00000000E+00  0.00000000E+00
  0.00000000E+00  0.00000000E+00  0.00000000E+00
  0.00000000E+00  0.00000000E+00  0.00000000E+00
  0.00000000E+00  0.00000000E+00  0.00000000E+00
  0.00000000E+00  0.00000000E+00  0.00000000E+00
  0.00000000E+00  0.00000000E+00  0.00000000E+00
  0.00000000E+00  0.00000000E+00  0.00000000E+00
  0.00000000E+00  0.00000000E+00  0.00000000E+00
  0.00000000E+00  0.00000000E+00  0.00000000E+00
  0.00000000E+00  0.00000000E+00  0.00000000E+00
  0.00000000E+00  0.00000000E+00  0.00000000E+00
  0.00000000E+00  0.00000000E+00  0.00000000E+00
  0.00000000E+00  0.00000000E+00  0.00000000E+00
  0.00000000E+00  0.00000000E+00  0.00000000E+00
  0.00000000E+00  0.00000000E+00  0.00000000E+00
  0.00000000E+00  0.00000000E+00  0.00000000E+00
  0.00000000E+00  0.00000000E+00  0.00000000E+00
  0.00000000E+00  0.00000000E+00  0.00000000E+00
  0.00000000E+00  0.00000000E+00  0.00000000E+00
  0.00000000E+00  0.00000000E+00  0.00000000E+00
  0.00000000E+00  0.00000000E+00  0.00000000E+00
  0.00000000E+00  0.00000000E+00  0.00000000E+00
  0.00000000E+00  0.00000000E+00  0.00000000E+00
  0.00000000E+00  0.00000000E+00  0.00000000E+00
  0.00000000E+00  0.00000000E+00  0.00000000E+00
  0.00000000E+00  0.00000000E+00  0.00000000E+00
  0.00000000E+00  0.00000000E+00  0.00000000E+00
  0.00000000E+00  0.00000000E+00  0.00000000E+00
  0.00000000E+00  0.00000000E+00  0.00000000E+00
  0.00000000E+00  0.00000000E+00  0.00000000E+00
  0.00000000E+00  0.00000000E+00  0.00000000E+00
  0.00000000E+00  0.00000000E+00  0.00000000E+00
  0.00000000E+00  0.00000000E+00  0.00000000E+00
