RuN13-2                                 
   1.00000000000000     
    17.0990259999999985   -9.8721239999999995    0.0000000000000000
     0.0000000000000000   19.7442530000000005    0.0000000000000000
     0.0000000000000000    0.0000000000000000   20.0000000000000000
   C    N    Ru
   113    13     1
Selective dynamics
Direct
  0.0210870582957032  0.9792388018993810  0.0000000000000000   T   T   T
  0.1042255413219012  0.0204766963004734  0.0000000000000000   T   T   T
  0.1460211657902949  0.9788770546070853  0.0000000000000000   T   T   T
  0.2294145927381722  0.0206457772931339  0.0000000000000000   T   T   T
  0.2710171080045397  0.9785357525144224  0.0000000000000000   T   T   T
  0.3542631002408483  0.0205415478308586  0.0000000000000000   T   T   T
  0.3959302817274019  0.9784583029446183  0.0000000000000000   T   T   T
  0.4791931160103184  0.0210116075824771  0.0000000000000000   T   T   T
  0.5207781394357889  0.9788805787659206  0.0000000000000000   T   T   T
  0.6040859382233533  0.0214751583919968  0.0000000000000000   T   T   T
  0.6457770099168992  0.9794452716682589  0.0000000000000000   T   T   T
  0.7290133674596605  0.0214507980022518  0.0000000000000000   T   T   T
  0.7706781117915430  0.9794658961448667  0.0000000000000000   T   T   T
  0.8541192615402426  0.0213432634268667  0.0000000000000000   T   T   T
  0.8961191667638477  0.9798950304828062  0.0000000000000000   T   T   T
  0.9792206252147965  0.0211105241039590  0.0000000000000000   T   T   T
  0.0203985618594533  0.1042203320701990  0.0000000000000000   T   T   T
  0.1037001968534501  0.1454511410841398  0.0000000000000000   T   T   T
  0.1453733983327146  0.1037272842268060  0.0000000000000000   T   T   T
  0.2282739222709107  0.1451185426150348  0.0000000000000000   T   T   T
  0.2704049540040153  0.1037843772533436  0.0000000000000000   T   T   T
  0.3540769326346843  0.1460040638219768  0.0000000000000000   T   T   T
  0.3952258619735244  0.1038052191259817  0.0000000000000000   T   T   T
  0.4785314507924344  0.1469486481071154  0.0000000000000000   T   T   T
  0.5203789549649465  0.1048542463454191  0.0000000000000000   T   T   T
  0.6034027083251184  0.1474047967013152  0.0000000000000000   T   T   T
  0.6451847767070761  0.1051393224230188  0.0000000000000000   T   T   T
  0.7283993013734656  0.1469268774746573  0.0000000000000000   T   T   T
  0.7702334260028890  0.1049018303199000  0.0000000000000000   T   T   T
  0.8535577452621299  0.1463975940467848  0.0000000000000000   T   T   T
  0.8953832343682714  0.1045951444115277  0.0000000000000000   T   T   T
  0.9787433698814092  0.1459581317564589  0.0000000000000000   T   T   T
  0.0205029993057320  0.2293408109799326  0.0000000000000000   T   T   T
  0.1037330260034636  0.2704193572093462  0.0000000000000000   T   T   T
  0.1451107175033764  0.2283413092922268  0.0000000000000000   T   T   T
  0.2280328127459796  0.2694393287064108  0.0000000000000000   T   T   T
  0.2693092341884180  0.2280039549569904  0.0000000000000000   T   T   T
  0.3943957043556744  0.2285009708124891  0.0000000000000000   T   T   T
  0.5189637125366147  0.2295079853823032  0.0000000000000000   T   T   T
  0.6017830396284930  0.2738138000119812  0.0000000000000000   T   T   T
  0.6440795272268295  0.2311755314118999  0.0000000000000000   T   T   T
  0.7274607485350926  0.2725457086384024  0.0000000000000000   T   T   T
  0.7695223502392455  0.2304250637036711  0.0000000000000000   T   T   T
  0.8529935017602372  0.2715548747458825  0.0000000000000000   T   T   T
  0.8950159396109191  0.2297262374217240  0.0000000000000000   T   T   T
  0.9784364320866941  0.2709592750767950  0.0000000000000000   T   T   T
  0.0203784615836588  0.3541618979521792  0.0000000000000000   T   T   T
  0.1037931287671748  0.3951123969920620  0.0000000000000000   T   T   T
  0.1458475939978301  0.3539899981039472  0.0000000000000000   T   T   T
  0.2287258229017655  0.3945361922166686  0.0000000000000000   T   T   T
  0.3499095797767836  0.3910720660043840  0.0000000000000000   T   T   T
  0.3908594114715798  0.3495372442665028  0.0000000000000000   T   T   T
  0.5158058256382833  0.3543191780480376  0.0000000000000000   T   T   T
  0.6429675269040735  0.3569857858927816  0.0000000000000000   T   T   T
  0.7261110581328483  0.3982903754324171  0.0000000000000000   T   T   T
  0.7687333953447978  0.3559522256254533  0.0000000000000000   T   T   T
  0.8524983442784628  0.3966021697783842  0.0000000000000000   T   T   T
  0.8947260500834002  0.3547862313564537  0.0000000000000000   T   T   T
  0.9783760405255902  0.3958764533307658  0.0000000000000000   T   T   T
  0.0209490872937659  0.4791836481226183  0.0000000000000000   T   T   T
  0.1048021534591847  0.5203667295449607  0.0000000000000000   T   T   T
  0.1469280098197762  0.4784683332977749  0.0000000000000000   T   T   T
  0.2294816763401892  0.5188646085903668  0.0000000000000000   T   T   T
  0.3547950482590227  0.5165849469879481  0.0000000000000000   T   T   T
  0.6445932300005626  0.4841579303889870  0.0000000000000000   T   T   T
  0.7701559015736743  0.4811764333013757  0.0000000000000000   T   T   T
  0.8528425722842891  0.5215057357715690  0.0000000000000000   T   T   T
  0.8949706954730492  0.4796355236159603  0.0000000000000000   T   T   T
  0.9788637890880296  0.5208036129273340  0.0000000000000000   T   T   T
  0.0215313002373598  0.6041160023029600  0.0000000000000000   T   T   T
  0.1051103711856597  0.6452538444478307  0.0000000000000000   T   T   T
  0.1472145566584644  0.6033938145835646  0.0000000000000000   T   T   T
  0.2308923441438209  0.6441140209946089  0.0000000000000000   T   T   T
  0.2732407527957705  0.6018140558137230  0.0000000000000000   T   T   T
  0.3562815576993881  0.6429216849890435  0.0000000000000000   T   T   T
  0.4828494641011116  0.6442405216035691  0.0000000000000000   T   T   T
  0.5275436968957468  0.6085800714101749  0.0000000000000000   T   T   T
  0.6106272498637554  0.6508213237795801  0.0000000000000000   T   T   T
  0.6519473278922672  0.6103054806966758  0.0000000000000000   T   T   T
  0.7718157047501579  0.6057981353812391  0.0000000000000000   T   T   T
  0.8544795032097644  0.6461925159709219  0.0000000000000000   T   T   T
  0.8963097073937755  0.6048834402240018  0.0000000000000000   T   T   T
  0.9796044534230909  0.6458621034855929  0.0000000000000000   T   T   T
  0.0216436830471057  0.7291395264951854  0.0000000000000000   T   T   T
  0.1050270746050605  0.7703701328895669  0.0000000000000000   T   T   T
  0.1469677793197279  0.7284869993046985  0.0000000000000000   T   T   T
  0.2304322237475346  0.7696518966830318  0.0000000000000000   T   T   T
  0.2724532972860257  0.7275607936240943  0.0000000000000000   T   T   T
  0.3558481110173597  0.7688080089694411  0.0000000000000000   T   T   T
  0.3980475011623965  0.7261699844931816  0.0000000000000000   T   T   T
  0.4812122570015764  0.7702905525757902  0.0000000000000000   T   T   T
  0.6052627401591043  0.7709101216504679  0.0000000000000000   T   T   T
  0.7312259402702441  0.7725742871675068  0.0000000000000000   T   T   T
  0.7726006221018035  0.7310473627634674  0.0000000000000000   T   T   T
  0.8552965608131485  0.7720174203143106  0.0000000000000000   T   T   T
  0.8965687107584934  0.7297768941733761  0.0000000000000000   T   T   T
  0.9797124604175556  0.7708501020242475  0.0000000000000000   T   T   T
  0.0214727245988378  0.8542657701176065  0.0000000000000000   T   T   T
  0.1047250093286634  0.8955474570729719  0.0000000000000000   T   T   T
  0.1464973709549902  0.8537019856146500  0.0000000000000000   T   T   T
  0.2298199305332890  0.8951994990046551  0.0000000000000000   T   T   T
  0.2715862222840776  0.8530985923815437  0.0000000000000000   T   T   T
  0.3547905185511353  0.8948200273890539  0.0000000000000000   T   T   T
  0.3965645450413846  0.8525850193027003  0.0000000000000000   T   T   T
  0.4796073793291332  0.8950745772440775  0.0000000000000000   T   T   T
  0.5214663840131718  0.8529478886696604  0.0000000000000000   T   T   T
  0.6047915976866741  0.8959872959247014  0.0000000000000000   T   T   T
  0.6460302407957677  0.8539830222063722  0.0000000000000000   T   T   T
  0.7296208370421883  0.8962487387979841  0.0000000000000000   T   T   T
  0.7720563398127152  0.8551630942523385  0.0000000000000000   T   T   T
  0.8550533658595493  0.8966754227335318  0.0000000000000000   T   T   T
  0.8966773667108680  0.8550076374999973  0.0000000000000000   T   T   T
  0.9799562191329763  0.8961744333080098  0.0000000000000000   T   T   T
  0.3516404180603732  0.2673555710056482  0.0000000000000000   T   T   T
  0.4773336181315235  0.2716358353319741  0.0000000000000000   T   T   T
  0.2675423751829246  0.3519888515497012  0.0000000000000000   T   T   T
  0.4711389904782106  0.3874454746995520  0.0000000000000000   T   T   T
  0.5999675316230693  0.3997797797086884  0.0000000000000000   T   T   T
  0.2716599183442436  0.4771032641562623  0.0000000000000000   T   T   T
  0.3890025538204436  0.4720439438108331  0.0000000000000000   T   T   T
  0.6110361530743440  0.5289419190035695  0.0000000000000000   T   T   T
  0.7280561058602466  0.5229187897047399  0.0000000000000000   T   T   T
  0.3981065524119077  0.6003133743039575  0.0000000000000000   T   T   T
  0.7335070585712498  0.6484250944702653  0.0000000000000000   T   T   T
  0.5226445674507472  0.7283967287175981  0.0000000000000000   T   T   T
  0.6486403267417138  0.7327904792941513  0.0000000000000000   T   T   T
  0.4994132978101161  0.5002067942691985  0.0000000000000000   T   T   T
 
  0.00000000E+00  0.00000000E+00  0.00000000E+00
  0.00000000E+00  0.00000000E+00  0.00000000E+00
  0.00000000E+00  0.00000000E+00  0.00000000E+00
  0.00000000E+00  0.00000000E+00  0.00000000E+00
  0.00000000E+00  0.00000000E+00  0.00000000E+00
  0.00000000E+00  0.00000000E+00  0.00000000E+00
  0.00000000E+00  0.00000000E+00  0.00000000E+00
  0.00000000E+00  0.00000000E+00  0.00000000E+00
  0.00000000E+00  0.00000000E+00  0.00000000E+00
  0.00000000E+00  0.00000000E+00  0.00000000E+00
  0.00000000E+00  0.00000000E+00  0.00000000E+00
  0.00000000E+00  0.00000000E+00  0.00000000E+00
  0.00000000E+00  0.00000000E+00  0.00000000E+00
  0.00000000E+00  0.00000000E+00  0.00000000E+00
  0.00000000E+00  0.00000000E+00  0.00000000E+00
  0.00000000E+00  0.00000000E+00  0.00000000E+00
  0.00000000E+00  0.00000000E+00  0.00000000E+00
  0.00000000E+00  0.00000000E+00  0.00000000E+00
  0.00000000E+00  0.00000000E+00  0.00000000E+00
  0.00000000E+00  0.00000000E+00  0.00000000E+00
  0.00000000E+00  0.00000000E+00  0.00000000E+00
  0.00000000E+00  0.00000000E+00  0.00000000E+00
  0.00000000E+00  0.00000000E+00  0.00000000E+00
  0.00000000E+00  0.00000000E+00  0.00000000E+00
  0.00000000E+00  0.00000000E+00  0.00000000E+00
  0.00000000E+00  0.00000000E+00  0.00000000E+00
  0.00000000E+00  0.00000000E+00  0.00000000E+00
  0.00000000E+00  0.00000000E+00  0.00000000E+00
  0.00000000E+00  0.00000000E+00  0.00000000E+00
  0.00000000E+00  0.00000000E+00  0.00000000E+00
  0.00000000E+00  0.00000000E+00  0.00000000E+00
  0.00000000E+00  0.00000000E+00  0.00000000E+00
  0.00000000E+00  0.00000000E+00  0.00000000E+00
  0.00000000E+00  0.00000000E+00  0.00000000E+00
  0.00000000E+00  0.00000000E+00  0.00000000E+00
  0.00000000E+00  0.00000000E+00  0.00000000E+00
  0.00000000E+00  0.00000000E+00  0.00000000E+00
  0.00000000E+00  0.00000000E+00  0.00000000E+00
  0.00000000E+00  0.00000000E+00  0.00000000E+00
  0.00000000E+00  0.00000000E+00  0.00000000E+00
  0.00000000E+00  0.00000000E+00  0.00000000E+00
  0.00000000E+00  0.00000000E+00  0.00000000E+00
  0.00000000E+00  0.00000000E+00  0.00000000E+00
  0.00000000E+00  0.00000000E+00  0.00000000E+00
  0.00000000E+00  0.00000000E+00  0.00000000E+00
  0.00000000E+00  0.00000000E+00  0.00000000E+00
  0.00000000E+00  0.00000000E+00  0.00000000E+00
  0.00000000E+00  0.00000000E+00  0.00000000E+00
  0.00000000E+00  0.00000000E+00  0.00000000E+00
  0.00000000E+00  0.00000000E+00  0.00000000E+00
  0.00000000E+00  0.00000000E+00  0.00000000E+00
  0.00000000E+00  0.00000000E+00  0.00000000E+00
  0.00000000E+00  0.00000000E+00  0.00000000E+00
  0.00000000E+00  0.00000000E+00  0.00000000E+00
  0.00000000E+00  0.00000000E+00  0.00000000E+00
  0.00000000E+00  0.00000000E+00  0.00000000E+00
  0.00000000E+00  0.00000000E+00  0.00000000E+00
  0.00000000E+00  0.00000000E+00  0.00000000E+00
  0.00000000E+00  0.00000000E+00  0.00000000E+00
  0.00000000E+00  0.00000000E+00  0.00000000E+00
  0.00000000E+00  0.00000000E+00  0.00000000E+00
  0.00000000E+00  0.00000000E+00  0.00000000E+00
  0.00000000E+00  0.00000000E+00  0.00000000E+00
  0.00000000E+00  0.00000000E+00  0.00000000E+00
  0.00000000E+00  0.00000000E+00  0.00000000E+00
  0.00000000E+00  0.00000000E+00  0.00000000E+00
  0.00000000E+00  0.00000000E+00  0.00000000E+00
  0.00000000E+00  0.00000000E+00  0.00000000E+00
  0.00000000E+00  0.00000000E+00  0.00000000E+00
  0.00000000E+00  0.00000000E+00  0.00000000E+00
  0.00000000E+00  0.00000000E+00  0.00000000E+00
  0.00000000E+00  0.00000000E+00  0.00000000E+00
  0.00000000E+00  0.00000000E+00  0.00000000E+00
  0.00000000E+00  0.00000000E+00  0.00000000E+00
  0.00000000E+00  0.00000000E+00  0.00000000E+00
  0.00000000E+00  0.00000000E+00  0.00000000E+00
  0.00000000E+00  0.00000000E+00  0.00000000E+00
  0.00000000E+00  0.00000000E+00  0.00000000E+00
  0.00000000E+00  0.00000000E+00  0.00000000E+00
  0.00000000E+00  0.00000000E+00  0.00000000E+00
  0.00000000E+00  0.00000000E+00  0.00000000E+00
  0.00000000E+00  0.00000000E+00  0.00000000E+00
  0.00000000E+00  0.00000000E+00  0.00000000E+00
  0.00000000E+00  0.00000000E+00  0.00000000E+00
  0.00000000E+00  0.00000000E+00  0.00000000E+00
  0.00000000E+00  0.00000000E+00  0.00000000E+00
  0.00000000E+00  0.00000000E+00  0.00000000E+00
  0.00000000E+00  0.00000000E+00  0.00000000E+00
  0.00000000E+00  0.00000000E+00  0.00000000E+00
  0.00000000E+00  0.00000000E+00  0.00000000E+00
  0.00000000E+00  0.00000000E+00  0.00000000E+00
  0.00000000E+00  0.00000000E+00  0.00000000E+00
  0.00000000E+00  0.00000000E+00  0.00000000E+00
  0.00000000E+00  0.00000000E+00  0.00000000E+00
  0.00000000E+00  0.00000000E+00  0.00000000E+00
  0.00000000E+00  0.00000000E+00  0.00000000E+00
  0.00000000E+00  0.00000000E+00  0.00000000E+00
  0.00000000E+00  0.00000000E+00  0.00000000E+00
  0.00000000E+00  0.00000000E+00  0.00000000E+00
  0.00000000E+00  0.00000000E+00  0.00000000E+00
  0.00000000E+00  0.00000000E+00  0.00000000E+00
  0.00000000E+00  0.00000000E+00  0.00000000E+00
  0.00000000E+00  0.00000000E+00  0.00000000E+00
  0.00000000E+00  0.00000000E+00  0.00000000E+00
  0.00000000E+00  0.00000000E+00  0.00000000E+00
  0.00000000E+00  0.00000000E+00  0.00000000E+00
  0.00000000E+00  0.00000000E+00  0.00000000E+00
  0.00000000E+00  0.00000000E+00  0.00000000E+00
  0.00000000E+00  0.00000000E+00  0.00000000E+00
  0.00000000E+00  0.00000000E+00  0.00000000E+00
  0.00000000E+00  0.00000000E+00  0.00000000E+00
  0.00000000E+00  0.00000000E+00  0.00000000E+00
  0.00000000E+00  0.00000000E+00  0.00000000E+00
  0.00000000E+00  0.00000000E+00  0.00000000E+00
  0.00000000E+00  0.00000000E+00  0.00000000E+00
  0.00000000E+00  0.00000000E+00  0.00000000E+00
  0.00000000E+00  0.00000000E+00  0.00000000E+00
  0.00000000E+00  0.00000000E+00  0.00000000E+00
  0.00000000E+00  0.00000000E+00  0.00000000E+00
  0.00000000E+00  0.00000000E+00  0.00000000E+00
  0.00000000E+00  0.00000000E+00  0.00000000E+00
  0.00000000E+00  0.00000000E+00  0.00000000E+00
  0.00000000E+00  0.00000000E+00  0.00000000E+00
  0.00000000E+00  0.00000000E+00  0.00000000E+00
  0.00000000E+00  0.00000000E+00  0.00000000E+00
  0.00000000E+00  0.00000000E+00  0.00000000E+00
  0.00000000E+00  0.00000000E+00  0.00000000E+00
