RuN5-2                                  
   1.00000000000000     
    17.0990259999999985   -9.8721239999999995    0.0000000000000000
     0.0000000000000000   19.7442530000000005    0.0000000000000000
     0.0000000000000000    0.0000000000000000   20.0000000000000000
   C    N    Ru
   121     5     1
Selective dynamics
Direct
  0.0208174720043040  0.9791672177231180  0.0000000000000000   T   T   T
  0.1035616566617147  0.0196043221539036  0.0000000000000000   T   T   T
  0.1455389729908579  0.9780706832498000  0.0000000000000000   T   T   T
  0.2286505066394225  0.0192254101581664  0.0000000000000000   T   T   T
  0.2708106222987131  0.9778574304691044  0.0000000000000000   T   T   T
  0.3540572748603906  0.0196349189853463  0.0000000000000000   T   T   T
  0.3960345020046347  0.9781573621496930  0.0000000000000000   T   T   T
  0.4792271278631377  0.0205566636549884  0.0000000000000000   T   T   T
  0.5210308151492058  0.9789037551333906  0.0000000000000000   T   T   T
  0.6042325057066682  0.0215041133128202  0.0000000000000000   T   T   T
  0.6461040302078165  0.9800005094382651  0.0000000000000000   T   T   T
  0.7292520930718177  0.0220288548139437  0.0000000000000000   T   T   T
  0.7711968907655299  0.9806586493736328  0.0000000000000000   T   T   T
  0.8542305747439488  0.0218759986204391  0.0000000000000000   T   T   T
  0.8962594312968047  0.9803975780880010  0.0000000000000000   T   T   T
  0.9790157269967008  0.0209504020034804  0.0000000000000000   T   T   T
  0.0196901134311545  0.1037753433231260  0.0000000000000000   T   T   T
  0.1023969567215258  0.1442156078633108  0.0000000000000000   T   T   T
  0.1441062362665046  0.1023549426595708  0.0000000000000000   T   T   T
  0.2267959212082726  0.1429026765128376  0.0000000000000000   T   T   T
  0.2693776573029153  0.1020464645761540  0.0000000000000000   T   T   T
  0.3526396963679453  0.1437459714552463  0.0000000000000000   T   T   T
  0.3951031608940608  0.1030159229952958  0.0000000000000000   T   T   T
  0.4784282812968887  0.1458515441970394  0.0000000000000000   T   T   T
  0.5203439078608479  0.1043329674335409  0.0000000000000000   T   T   T
  0.6035480383865506  0.1470578022369817  0.0000000000000000   T   T   T
  0.6453545769189007  0.1051968218780709  0.0000000000000000   T   T   T
  0.7285476113196955  0.1469710208369557  0.0000000000000000   T   T   T
  0.7704130808698477  0.1053335381298787  0.0000000000000000   T   T   T
  0.8535287032094340  0.1466640709966080  0.0000000000000000   T   T   T
  0.8952738031524865  0.1049420965068279  0.0000000000000000   T   T   T
  0.9782481816534657  0.1458171351920968  0.0000000000000000   T   T   T
  0.0196369847100955  0.2290090758882074  0.0000000000000000   T   T   T
  0.1024211144474993  0.2697395833527869  0.0000000000000000   T   T   T
  0.1431644830602916  0.2270343837152063  0.0000000000000000   T   T   T
  0.2255130494915784  0.2669492108780688  0.0000000000000000   T   T   T
  0.2668122596611969  0.2252874029342122  0.0000000000000000   T   T   T
  0.3495305206708670  0.2660751992476351  0.0000000000000000   T   T   T
  0.3932397464050720  0.2266008864303999  0.0000000000000000   T   T   T
  0.4766097470511871  0.2700900590653194  0.0000000000000000   T   T   T
  0.5193876009891413  0.2295567177031206  0.0000000000000000   T   T   T
  0.6027003750844104  0.2730294354315363  0.0000000000000000   T   T   T
  0.6445978204124925  0.2309613417341666  0.0000000000000000   T   T   T
  0.7279686331287102  0.2722085862537095  0.0000000000000000   T   T   T
  0.7697965363612969  0.2303666717284523  0.0000000000000000   T   T   T
  0.8531381268232103  0.2716595087238404  0.0000000000000000   T   T   T
  0.8949381528300127  0.2298974657747645  0.0000000000000000   T   T   T
  0.9780725424521780  0.2710056864365344  0.0000000000000000   T   T   T
  0.0199228350656984  0.3542179690633261  0.0000000000000000   T   T   T
  0.1033208487314653  0.3953414345548817  0.0000000000000000   T   T   T
  0.1444473547958403  0.3531901373909073  0.0000000000000000   T   T   T
  0.2272211436091263  0.3938920493384185  0.0000000000000000   T   T   T
  0.2666859709006487  0.3498863213589997  0.0000000000000000   T   T   T
  0.3477987654520588  0.3897373923281967  0.0000000000000000   T   T   T
  0.3899292562018306  0.3475380931502777  0.0000000000000000   T   T   T
  0.5151213895655031  0.3537884669845589  0.0000000000000000   T   T   T
  0.6005744489030026  0.4001089983450317  0.0000000000000000   T   T   T
  0.6429829204335914  0.3573322748797554  0.0000000000000000   T   T   T
  0.7270157014047036  0.3975158996949986  0.0000000000000000   T   T   T
  0.7691312162712176  0.3554975638863346  0.0000000000000000   T   T   T
  0.8528340237593074  0.3966068426906840  0.0000000000000000   T   T   T
  0.8947689688170282  0.3548631901287549  0.0000000000000000   T   T   T
  0.9783420331573834  0.3960414818225126  0.0000000000000000   T   T   T
  0.0207953075514683  0.4792210587125958  0.0000000000000000   T   T   T
  0.1044785158232319  0.5203378647223412  0.0000000000000000   T   T   T
  0.1460707422877920  0.4784729499105494  0.0000000000000000   T   T   T
  0.2299044724038073  0.5195744000988836  0.0000000000000000   T   T   T
  0.2710196119735369  0.4773975140578040  0.0000000000000000   T   T   T
  0.3551738994272657  0.5166798515852143  0.0000000000000000   T   T   T
  0.6456204936877259  0.4850983815390736  0.0000000000000000   T   T   T
  0.7290313159712414  0.5234420265411519  0.0000000000000000   T   T   T
  0.7699652675930306  0.4807038721694763  0.0000000000000000   T   T   T
  0.8537344104308499  0.5216958123800763  0.0000000000000000   T   T   T
  0.8953374549834503  0.4798200485723502  0.0000000000000000   T   T   T
  0.9790526590279378  0.5209444930830184  0.0000000000000000   T   T   T
  0.0215644135072446  0.6040646826133640  0.0000000000000000   T   T   T
  0.1051760269636097  0.6452269810454035  0.0000000000000000   T   T   T
  0.1470783506814584  0.6035038314111512  0.0000000000000000   T   T   T
  0.2309488545741841  0.6446610909420805  0.0000000000000000   T   T   T
  0.2730147988555244  0.6027026117796416  0.0000000000000000   T   T   T
  0.3572979050862622  0.6433234717949602  0.0000000000000000   T   T   T
  0.3995682251508562  0.6011343183524818  0.0000000000000000   T   T   T
  0.5283624301421176  0.6077547870127088  0.0000000000000000   T   T   T
  0.6526228895603170  0.6110822206988914  0.0000000000000000   T   T   T
  0.7337792205435935  0.6509761231032438  0.0000000000000000   T   T   T
  0.7729016546553258  0.6067789127395954  0.0000000000000000   T   T   T
  0.8556900116466067  0.6472875103238659  0.0000000000000000   T   T   T
  0.8966506734532383  0.6048936148656590  0.0000000000000000   T   T   T
  0.9799740903092361  0.6459236011437031  0.0000000000000000   T   T   T
  0.0218855039314661  0.7291213607376941  0.0000000000000000   T   T   T
  0.1050855524819214  0.7702250879680707  0.0000000000000000   T   T   T
  0.1468579934496527  0.7284206456595934  0.0000000000000000   T   T   T
  0.2301972650822914  0.7696383303996461  0.0000000000000000   T   T   T
  0.2720211345466105  0.7278030652859548  0.0000000000000000   T   T   T
  0.3554601006674908  0.7689719364340476  0.0000000000000000   T   T   T
  0.3971369321332933  0.7270750317023793  0.0000000000000000   T   T   T
  0.4807494418166402  0.7695903934477798  0.0000000000000000   T   T   T
  0.5228924289913732  0.7290232887537876  0.0000000000000000   T   T   T
  0.6062715539939300  0.7718039433919399  0.0000000000000000   T   T   T
  0.6509668205797241  0.7336228858970770  0.0000000000000000   T   T   T
  0.7328618264601033  0.7745373531403607  0.0000000000000000   T   T   T
  0.7749176064684866  0.7333819864450124  0.0000000000000000   T   T   T
  0.8569437219684978  0.7732165392187070  0.0000000000000000   T   T   T
  0.8976622907456623  0.7304716636034403  0.0000000000000000   T   T   T
  0.9804792413681835  0.7711803594431116  0.0000000000000000   T   T   T
  0.0217045869721194  0.8542822218961220  0.0000000000000000   T   T   T
  0.1046155553197368  0.8950862835873202  0.0000000000000000   T   T   T
  0.1464268503469443  0.8533295371945351  0.0000000000000000   T   T   T
  0.2296592523684663  0.8946055714631840  0.0000000000000000   T   T   T
  0.2715122993780318  0.8529554451052240  0.0000000000000000   T   T   T
  0.3548919291984465  0.8945936580467339  0.0000000000000000   T   T   T
  0.3966778221722345  0.8528201200561091  0.0000000000000000   T   T   T
  0.4799461027265887  0.8951233891543050  0.0000000000000000   T   T   T
  0.5219591335353071  0.8536102101574867  0.0000000000000000   T   T   T
  0.6050377048706035  0.8963989013611248  0.0000000000000000   T   T   T
  0.6471027444712689  0.8553016590110339  0.0000000000000000   T   T   T
  0.7302798231075253  0.8975690192587337  0.0000000000000000   T   T   T
  0.7729191707274918  0.8571414934354793  0.0000000000000000   T   T   T
  0.8556482126874517  0.8976523786048056  0.0000000000000000   T   T   T
  0.8975833270830408  0.8560450250637393  0.0000000000000000   T   T   T
  0.9801495696580929  0.8963765385555836  0.0000000000000000   T   T   T
  0.4701233078023179  0.3881715344225444  0.0000000000000000   T   T   T
  0.3895837813045996  0.4705906718646752  0.0000000000000000   T   T   T
  0.6108654758062878  0.5318962235856539  0.0000000000000000   T   T   T
  0.4847368535569986  0.6464867210236029  0.0000000000000000   T   T   T
  0.6117510894770358  0.6532576133764556  0.0000000000000000   T   T   T
  0.4990005956835597  0.5016637540103113  0.0000000000000000   T   T   T
 
  0.00000000E+00  0.00000000E+00  0.00000000E+00
  0.00000000E+00  0.00000000E+00  0.00000000E+00
  0.00000000E+00  0.00000000E+00  0.00000000E+00
  0.00000000E+00  0.00000000E+00  0.00000000E+00
  0.00000000E+00  0.00000000E+00  0.00000000E+00
  0.00000000E+00  0.00000000E+00  0.00000000E+00
  0.00000000E+00  0.00000000E+00  0.00000000E+00
  0.00000000E+00  0.00000000E+00  0.00000000E+00
  0.00000000E+00  0.00000000E+00  0.00000000E+00
  0.00000000E+00  0.00000000E+00  0.00000000E+00
  0.00000000E+00  0.00000000E+00  0.00000000E+00
  0.00000000E+00  0.00000000E+00  0.00000000E+00
  0.00000000E+00  0.00000000E+00  0.00000000E+00
  0.00000000E+00  0.00000000E+00  0.00000000E+00
  0.00000000E+00  0.00000000E+00  0.00000000E+00
  0.00000000E+00  0.00000000E+00  0.00000000E+00
  0.00000000E+00  0.00000000E+00  0.00000000E+00
  0.00000000E+00  0.00000000E+00  0.00000000E+00
  0.00000000E+00  0.00000000E+00  0.00000000E+00
  0.00000000E+00  0.00000000E+00  0.00000000E+00
  0.00000000E+00  0.00000000E+00  0.00000000E+00
  0.00000000E+00  0.00000000E+00  0.00000000E+00
  0.00000000E+00  0.00000000E+00  0.00000000E+00
  0.00000000E+00  0.00000000E+00  0.00000000E+00
  0.00000000E+00  0.00000000E+00  0.00000000E+00
  0.00000000E+00  0.00000000E+00  0.00000000E+00
  0.00000000E+00  0.00000000E+00  0.00000000E+00
  0.00000000E+00  0.00000000E+00  0.00000000E+00
  0.00000000E+00  0.00000000E+00  0.00000000E+00
  0.00000000E+00  0.00000000E+00  0.00000000E+00
  0.00000000E+00  0.00000000E+00  0.00000000E+00
  0.00000000E+00  0.00000000E+00  0.00000000E+00
  0.00000000E+00  0.00000000E+00  0.00000000E+00
  0.00000000E+00  0.00000000E+00  0.00000000E+00
  0.00000000E+00  0.00000000E+00  0.00000000E+00
  0.00000000E+00  0.00000000E+00  0.00000000E+00
  0.00000000E+00  0.00000000E+00  0.00000000E+00
  0.00000000E+00  0.00000000E+00  0.00000000E+00
  0.00000000E+00  0.00000000E+00  0.00000000E+00
  0.00000000E+00  0.00000000E+00  0.00000000E+00
  0.00000000E+00  0.00000000E+00  0.00000000E+00
  0.00000000E+00  0.00000000E+00  0.00000000E+00
  0.00000000E+00  0.00000000E+00  0.00000000E+00
  0.00000000E+00  0.00000000E+00  0.00000000E+00
  0.00000000E+00  0.00000000E+00  0.00000000E+00
  0.00000000E+00  0.00000000E+00  0.00000000E+00
  0.00000000E+00  0.00000000E+00  0.00000000E+00
  0.00000000E+00  0.00000000E+00  0.00000000E+00
  0.00000000E+00  0.00000000E+00  0.00000000E+00
  0.00000000E+00  0.00000000E+00  0.00000000E+00
  0.00000000E+00  0.00000000E+00  0.00000000E+00
  0.00000000E+00  0.00000000E+00  0.00000000E+00
  0.00000000E+00  0.00000000E+00  0.00000000E+00
  0.00000000E+00  0.00000000E+00  0.00000000E+00
  0.00000000E+00  0.00000000E+00  0.00000000E+00
  0.00000000E+00  0.00000000E+00  0.00000000E+00
  0.00000000E+00  0.00000000E+00  0.00000000E+00
  0.00000000E+00  0.00000000E+00  0.00000000E+00
  0.00000000E+00  0.00000000E+00  0.00000000E+00
  0.00000000E+00  0.00000000E+00  0.00000000E+00
  0.00000000E+00  0.00000000E+00  0.00000000E+00
  0.00000000E+00  0.00000000E+00  0.00000000E+00
  0.00000000E+00  0.00000000E+00  0.00000000E+00
  0.00000000E+00  0.00000000E+00  0.00000000E+00
  0.00000000E+00  0.00000000E+00  0.00000000E+00
  0.00000000E+00  0.00000000E+00  0.00000000E+00
  0.00000000E+00  0.00000000E+00  0.00000000E+00
  0.00000000E+00  0.00000000E+00  0.00000000E+00
  0.00000000E+00  0.00000000E+00  0.00000000E+00
  0.00000000E+00  0.00000000E+00  0.00000000E+00
  0.00000000E+00  0.00000000E+00  0.00000000E+00
  0.00000000E+00  0.00000000E+00  0.00000000E+00
  0.00000000E+00  0.00000000E+00  0.00000000E+00
  0.00000000E+00  0.00000000E+00  0.00000000E+00
  0.00000000E+00  0.00000000E+00  0.00000000E+00
  0.00000000E+00  0.00000000E+00  0.00000000E+00
  0.00000000E+00  0.00000000E+00  0.00000000E+00
  0.00000000E+00  0.00000000E+00  0.00000000E+00
  0.00000000E+00  0.00000000E+00  0.00000000E+00
  0.00000000E+00  0.00000000E+00  0.00000000E+00
  0.00000000E+00  0.00000000E+00  0.00000000E+00
  0.00000000E+00  0.00000000E+00  0.00000000E+00
  0.00000000E+00  0.00000000E+00  0.00000000E+00
  0.00000000E+00  0.00000000E+00  0.00000000E+00
  0.00000000E+00  0.00000000E+00  0.00000000E+00
  0.00000000E+00  0.00000000E+00  0.00000000E+00
  0.00000000E+00  0.00000000E+00  0.00000000E+00
  0.00000000E+00  0.00000000E+00  0.00000000E+00
  0.00000000E+00  0.00000000E+00  0.00000000E+00
  0.00000000E+00  0.00000000E+00  0.00000000E+00
  0.00000000E+00  0.00000000E+00  0.00000000E+00
  0.00000000E+00  0.00000000E+00  0.00000000E+00
  0.00000000E+00  0.00000000E+00  0.00000000E+00
  0.00000000E+00  0.00000000E+00  0.00000000E+00
  0.00000000E+00  0.00000000E+00  0.00000000E+00
  0.00000000E+00  0.00000000E+00  0.00000000E+00
  0.00000000E+00  0.00000000E+00  0.00000000E+00
  0.00000000E+00  0.00000000E+00  0.00000000E+00
  0.00000000E+00  0.00000000E+00  0.00000000E+00
  0.00000000E+00  0.00000000E+00  0.00000000E+00
  0.00000000E+00  0.00000000E+00  0.00000000E+00
  0.00000000E+00  0.00000000E+00  0.00000000E+00
  0.00000000E+00  0.00000000E+00  0.00000000E+00
  0.00000000E+00  0.00000000E+00  0.00000000E+00
  0.00000000E+00  0.00000000E+00  0.00000000E+00
  0.00000000E+00  0.00000000E+00  0.00000000E+00
  0.00000000E+00  0.00000000E+00  0.00000000E+00
  0.00000000E+00  0.00000000E+00  0.00000000E+00
  0.00000000E+00  0.00000000E+00  0.00000000E+00
  0.00000000E+00  0.00000000E+00  0.00000000E+00
  0.00000000E+00  0.00000000E+00  0.00000000E+00
  0.00000000E+00  0.00000000E+00  0.00000000E+00
  0.00000000E+00  0.00000000E+00  0.00000000E+00
  0.00000000E+00  0.00000000E+00  0.00000000E+00
  0.00000000E+00  0.00000000E+00  0.00000000E+00
  0.00000000E+00  0.00000000E+00  0.00000000E+00
  0.00000000E+00  0.00000000E+00  0.00000000E+00
  0.00000000E+00  0.00000000E+00  0.00000000E+00
  0.00000000E+00  0.00000000E+00  0.00000000E+00
  0.00000000E+00  0.00000000E+00  0.00000000E+00
  0.00000000E+00  0.00000000E+00  0.00000000E+00
  0.00000000E+00  0.00000000E+00  0.00000000E+00
  0.00000000E+00  0.00000000E+00  0.00000000E+00
  0.00000000E+00  0.00000000E+00  0.00000000E+00
  0.00000000E+00  0.00000000E+00  0.00000000E+00
  0.00000000E+00  0.00000000E+00  0.00000000E+00
  0.00000000E+00  0.00000000E+00  0.00000000E+00
