RuN13-3                                 
   1.00000000000000     
    17.0990259999999985   -9.8721239999999995    0.0000000000000000
     0.0000000000000000   19.7442530000000005    0.0000000000000000
     0.0000000000000000    0.0000000000000000   20.0000000000000000
   C    N    Ru
   113    13     1
Selective dynamics
Direct
  0.0211882158747072  0.9793959438127596  0.0000000000000000   T   T   T
  0.1042108020389022  0.0204686991046366  0.0000000000000000   T   T   T
  0.1460582658741298  0.9789073439882823  0.0000000000000000   T   T   T
  0.2294041882100656  0.0206176422178611  0.0000000000000000   T   T   T
  0.2710346387175570  0.9785265980903856  0.0000000000000000   T   T   T
  0.3543053861101827  0.0204545057983884  0.0000000000000000   T   T   T
  0.3959806770544940  0.9784220550443445  0.0000000000000000   T   T   T
  0.4793071629987429  0.0210698067511950  0.0000000000000000   T   T   T
  0.5208933186689463  0.9790087611644961  0.0000000000000000   T   T   T
  0.6042416312221617  0.0212966170644685  0.0000000000000000   T   T   T
  0.6460466792076119  0.9792594566708229  0.0000000000000000   T   T   T
  0.7290368690955910  0.0214196359219799  0.0000000000000000   T   T   T
  0.7706480874504567  0.9796285728758509  0.0000000000000000   T   T   T
  0.8540741074144618  0.0214265448701765  0.0000000000000000   T   T   T
  0.8963532494116173  0.9802663218865298  0.0000000000000000   T   T   T
  0.9793377482924921  0.0213052607088971  0.0000000000000000   T   T   T
  0.0204295324810836  0.1043593495444587  0.0000000000000000   T   T   T
  0.1036879399200635  0.1454641723447721  0.0000000000000000   T   T   T
  0.1453413040394973  0.1037441655572202  0.0000000000000000   T   T   T
  0.2282008778875116  0.1450384568943268  0.0000000000000000   T   T   T
  0.2703818162536691  0.1038009110580198  0.0000000000000000   T   T   T
  0.3540789911851248  0.1459406724601151  0.0000000000000000   T   T   T
  0.3952781368126775  0.1038062197225811  0.0000000000000000   T   T   T
  0.4785419120401616  0.1469059204240081  0.0000000000000000   T   T   T
  0.5204249815031425  0.1048605508449779  0.0000000000000000   T   T   T
  0.6034357695810246  0.1474219045358234  0.0000000000000000   T   T   T
  0.6452544227737617  0.1051068185487326  0.0000000000000000   T   T   T
  0.7284441680974695  0.1470044386886285  0.0000000000000000   T   T   T
  0.7703027268613164  0.1050943776145908  0.0000000000000000   T   T   T
  0.8535219342370347  0.1465022993466422  0.0000000000000000   T   T   T
  0.8953659936860594  0.1046943443336656  0.0000000000000000   T   T   T
  0.9786851156628564  0.1459868918125452  0.0000000000000000   T   T   T
  0.0204368679914709  0.2293717941612597  0.0000000000000000   T   T   T
  0.1036523816309584  0.2703473162348098  0.0000000000000000   T   T   T
  0.1450330616339838  0.2282888867936425  0.0000000000000000   T   T   T
  0.2279297749347780  0.2692731795388682  0.0000000000000000   T   T   T
  0.2691791990428737  0.2279105482496522  0.0000000000000000   T   T   T
  0.3944604518103129  0.2284967568518463  0.0000000000000000   T   T   T
  0.5187988745015776  0.2294391219028077  0.0000000000000000   T   T   T
  0.6015973253165313  0.2739906475320086  0.0000000000000000   T   T   T
  0.6439834729243191  0.2312299323364193  0.0000000000000000   T   T   T
  0.7273266248927348  0.2726918843721506  0.0000000000000000   T   T   T
  0.7695014791161078  0.2305776931628008  0.0000000000000000   T   T   T
  0.8529217715205853  0.2716478696342858  0.0000000000000000   T   T   T
  0.8949821656942764  0.2298565027052692  0.0000000000000000   T   T   T
  0.9784251982637935  0.2710350452876801  0.0000000000000000   T   T   T
  0.0203475594108231  0.3542191900972506  0.0000000000000000   T   T   T
  0.1037799973739428  0.3950900602813391  0.0000000000000000   T   T   T
  0.1457224145144383  0.3538496002340753  0.0000000000000000   T   T   T
  0.2286738875026224  0.3943703092771187  0.0000000000000000   T   T   T
  0.3497110817797531  0.3907083589094307  0.0000000000000000   T   T   T
  0.3907616322595014  0.3493851872355077  0.0000000000000000   T   T   T
  0.5158075659360040  0.3543764101587078  0.0000000000000000   T   T   T
  0.6425932785652043  0.3570658856798484  0.0000000000000000   T   T   T
  0.7258347855925416  0.3985289638957210  0.0000000000000000   T   T   T
  0.7684764782878468  0.3561430205240950  0.0000000000000000   T   T   T
  0.8523152796168415  0.3967031099312721  0.0000000000000000   T   T   T
  0.8946149127059725  0.3549376758512022  0.0000000000000000   T   T   T
  0.9782786719500118  0.3959535168310933  0.0000000000000000   T   T   T
  0.0208110254234031  0.4792084450429350  0.0000000000000000   T   T   T
  0.1047630758510248  0.5203575785845294  0.0000000000000000   T   T   T
  0.1469143527650507  0.4784214023588225  0.0000000000000000   T   T   T
  0.2295948158375811  0.5187143063641428  0.0000000000000000   T   T   T
  0.3549396452584000  0.5162866499087729  0.0000000000000000   T   T   T
  0.6439316543361769  0.4839885785207191  0.0000000000000000   T   T   T
  0.7698094267886564  0.4814247001678627  0.0000000000000000   T   T   T
  0.8525424948274225  0.5215926763857722  0.0000000000000000   T   T   T
  0.8947246068700139  0.4797156801087311  0.0000000000000000   T   T   T
  0.9786781027039910  0.5208397652067646  0.0000000000000000   T   T   T
  0.0213821889105837  0.6040823370092165  0.0000000000000000   T   T   T
  0.1049842751137097  0.6451565881281501  0.0000000000000000   T   T   T
  0.1471377723022783  0.6032885243841583  0.0000000000000000   T   T   T
  0.2309716698528814  0.6439347984797658  0.0000000000000000   T   T   T
  0.2733427957779281  0.6015641648101339  0.0000000000000000   T   T   T
  0.3568798687059119  0.6428260509574073  0.0000000000000000   T   T   T
  0.4839664545791384  0.6449253436522177  0.0000000000000000   T   T   T
  0.5280391514884516  0.6064264637149227  0.0000000000000000   T   T   T
  0.6517272134021326  0.6099935469858082  0.0000000000000000   T   T   T
  0.7715291065853710  0.6059443741093218  0.0000000000000000   T   T   T
  0.8540120082860331  0.6462579666375570  0.0000000000000000   T   T   T
  0.8961201679263358  0.6048970376230917  0.0000000000000000   T   T   T
  0.9793125157325776  0.6457915921245146  0.0000000000000000   T   T   T
  0.0216416721297705  0.7291113600424458  0.0000000000000000   T   T   T
  0.1049704565199209  0.7703010272172920  0.0000000000000000   T   T   T
  0.1468794756422588  0.7284040374505227  0.0000000000000000   T   T   T
  0.2302677211946500  0.7695205045840035  0.0000000000000000   T   T   T
  0.2722611829908838  0.7273260970912416  0.0000000000000000   T   T   T
  0.3555450793363501  0.7684710309236311  0.0000000000000000   T   T   T
  0.3976439733287080  0.7258803022140693  0.0000000000000000   T   T   T
  0.4815880020056819  0.7702316480511686  0.0000000000000000   T   T   T
  0.5220383656475011  0.7278490565249245  0.0000000000000000   T   T   T
  0.6496815592141286  0.7327196321917009  0.0000000000000000   T   T   T
  0.7315884083598190  0.7728241396442393  0.0000000000000000   T   T   T
  0.7737284330842611  0.7315345582372336  0.0000000000000000   T   T   T
  0.8556703534474450  0.7720315607610476  0.0000000000000000   T   T   T
  0.8968101822560078  0.7298104740418968  0.0000000000000000   T   T   T
  0.9798488989758978  0.7708289634525337  0.0000000000000000   T   T   T
  0.0215604754330288  0.8542737913310314  0.0000000000000000   T   T   T
  0.1047064962678319  0.8955176646106772  0.0000000000000000   T   T   T
  0.1464787411062856  0.8536349330582749  0.0000000000000000   T   T   T
  0.2298266957846960  0.8951372390871930  0.0000000000000000   T   T   T
  0.2715490124439107  0.8529847143413546  0.0000000000000000   T   T   T
  0.3548756200491220  0.8946801486826150  0.0000000000000000   T   T   T
  0.3965024953850712  0.8524196810938677  0.0000000000000000   T   T   T
  0.4798310136117745  0.8951862070468989  0.0000000000000000   T   T   T
  0.5213184105562516  0.8532765805143770  0.0000000000000000   T   T   T
  0.6047919157713298  0.8951466104267541  0.0000000000000000   T   T   T
  0.6466062226188094  0.8541391613507487  0.0000000000000000   T   T   T
  0.7295582716423503  0.8959832016801655  0.0000000000000000   T   T   T
  0.7728823689727815  0.8558576848300434  0.0000000000000000   T   T   T
  0.8553327341192174  0.8971100011191739  0.0000000000000000   T   T   T
  0.8970132211507653  0.8553223030351307  0.0000000000000000   T   T   T
  0.9799200021510809  0.8962075391518908  0.0000000000000000   T   T   T
  0.3515445266447818  0.2671318187613843  0.0000000000000000   T   T   T
  0.4771280880716648  0.2713351057109778  0.0000000000000000   T   T   T
  0.2673860625508144  0.3518282681853758  0.0000000000000000   T   T   T
  0.4707325382292485  0.3871474851259715  0.0000000000000000   T   T   T
  0.5992064117872670  0.4000870311565282  0.0000000000000000   T   T   T
  0.2714249642846620  0.4767052102595404  0.0000000000000000   T   T   T
  0.3889037647389972  0.4716352894761574  0.0000000000000000   T   T   T
  0.6109345446599311  0.5307281051299263  0.0000000000000000   T   T   T
  0.7276223525470022  0.5230243585883468  0.0000000000000000   T   T   T
  0.3984125426249023  0.5995026868926482  0.0000000000000000   T   T   T
  0.6114171125675140  0.6522190145144524  0.0000000000000000   T   T   T
  0.7330514638867047  0.6492625326329505  0.0000000000000000   T   T   T
  0.6058118795250087  0.7703517435430275  0.0000000000000000   T   T   T
  0.4995680519245602  0.5005781975968019  0.0000000000000000   T   T   T
 
  0.00000000E+00  0.00000000E+00  0.00000000E+00
  0.00000000E+00  0.00000000E+00  0.00000000E+00
  0.00000000E+00  0.00000000E+00  0.00000000E+00
  0.00000000E+00  0.00000000E+00  0.00000000E+00
  0.00000000E+00  0.00000000E+00  0.00000000E+00
  0.00000000E+00  0.00000000E+00  0.00000000E+00
  0.00000000E+00  0.00000000E+00  0.00000000E+00
  0.00000000E+00  0.00000000E+00  0.00000000E+00
  0.00000000E+00  0.00000000E+00  0.00000000E+00
  0.00000000E+00  0.00000000E+00  0.00000000E+00
  0.00000000E+00  0.00000000E+00  0.00000000E+00
  0.00000000E+00  0.00000000E+00  0.00000000E+00
  0.00000000E+00  0.00000000E+00  0.00000000E+00
  0.00000000E+00  0.00000000E+00  0.00000000E+00
  0.00000000E+00  0.00000000E+00  0.00000000E+00
  0.00000000E+00  0.00000000E+00  0.00000000E+00
  0.00000000E+00  0.00000000E+00  0.00000000E+00
  0.00000000E+00  0.00000000E+00  0.00000000E+00
  0.00000000E+00  0.00000000E+00  0.00000000E+00
  0.00000000E+00  0.00000000E+00  0.00000000E+00
  0.00000000E+00  0.00000000E+00  0.00000000E+00
  0.00000000E+00  0.00000000E+00  0.00000000E+00
  0.00000000E+00  0.00000000E+00  0.00000000E+00
  0.00000000E+00  0.00000000E+00  0.00000000E+00
  0.00000000E+00  0.00000000E+00  0.00000000E+00
  0.00000000E+00  0.00000000E+00  0.00000000E+00
  0.00000000E+00  0.00000000E+00  0.00000000E+00
  0.00000000E+00  0.00000000E+00  0.00000000E+00
  0.00000000E+00  0.00000000E+00  0.00000000E+00
  0.00000000E+00  0.00000000E+00  0.00000000E+00
  0.00000000E+00  0.00000000E+00  0.00000000E+00
  0.00000000E+00  0.00000000E+00  0.00000000E+00
  0.00000000E+00  0.00000000E+00  0.00000000E+00
  0.00000000E+00  0.00000000E+00  0.00000000E+00
  0.00000000E+00  0.00000000E+00  0.00000000E+00
  0.00000000E+00  0.00000000E+00  0.00000000E+00
  0.00000000E+00  0.00000000E+00  0.00000000E+00
  0.00000000E+00  0.00000000E+00  0.00000000E+00
  0.00000000E+00  0.00000000E+00  0.00000000E+00
  0.00000000E+00  0.00000000E+00  0.00000000E+00
  0.00000000E+00  0.00000000E+00  0.00000000E+00
  0.00000000E+00  0.00000000E+00  0.00000000E+00
  0.00000000E+00  0.00000000E+00  0.00000000E+00
  0.00000000E+00  0.00000000E+00  0.00000000E+00
  0.00000000E+00  0.00000000E+00  0.00000000E+00
  0.00000000E+00  0.00000000E+00  0.00000000E+00
  0.00000000E+00  0.00000000E+00  0.00000000E+00
  0.00000000E+00  0.00000000E+00  0.00000000E+00
  0.00000000E+00  0.00000000E+00  0.00000000E+00
  0.00000000E+00  0.00000000E+00  0.00000000E+00
  0.00000000E+00  0.00000000E+00  0.00000000E+00
  0.00000000E+00  0.00000000E+00  0.00000000E+00
  0.00000000E+00  0.00000000E+00  0.00000000E+00
  0.00000000E+00  0.00000000E+00  0.00000000E+00
  0.00000000E+00  0.00000000E+00  0.00000000E+00
  0.00000000E+00  0.00000000E+00  0.00000000E+00
  0.00000000E+00  0.00000000E+00  0.00000000E+00
  0.00000000E+00  0.00000000E+00  0.00000000E+00
  0.00000000E+00  0.00000000E+00  0.00000000E+00
  0.00000000E+00  0.00000000E+00  0.00000000E+00
  0.00000000E+00  0.00000000E+00  0.00000000E+00
  0.00000000E+00  0.00000000E+00  0.00000000E+00
  0.00000000E+00  0.00000000E+00  0.00000000E+00
  0.00000000E+00  0.00000000E+00  0.00000000E+00
  0.00000000E+00  0.00000000E+00  0.00000000E+00
  0.00000000E+00  0.00000000E+00  0.00000000E+00
  0.00000000E+00  0.00000000E+00  0.00000000E+00
  0.00000000E+00  0.00000000E+00  0.00000000E+00
  0.00000000E+00  0.00000000E+00  0.00000000E+00
  0.00000000E+00  0.00000000E+00  0.00000000E+00
  0.00000000E+00  0.00000000E+00  0.00000000E+00
  0.00000000E+00  0.00000000E+00  0.00000000E+00
  0.00000000E+00  0.00000000E+00  0.00000000E+00
  0.00000000E+00  0.00000000E+00  0.00000000E+00
  0.00000000E+00  0.00000000E+00  0.00000000E+00
  0.00000000E+00  0.00000000E+00  0.00000000E+00
  0.00000000E+00  0.00000000E+00  0.00000000E+00
  0.00000000E+00  0.00000000E+00  0.00000000E+00
  0.00000000E+00  0.00000000E+00  0.00000000E+00
  0.00000000E+00  0.00000000E+00  0.00000000E+00
  0.00000000E+00  0.00000000E+00  0.00000000E+00
  0.00000000E+00  0.00000000E+00  0.00000000E+00
  0.00000000E+00  0.00000000E+00  0.00000000E+00
  0.00000000E+00  0.00000000E+00  0.00000000E+00
  0.00000000E+00  0.00000000E+00  0.00000000E+00
  0.00000000E+00  0.00000000E+00  0.00000000E+00
  0.00000000E+00  0.00000000E+00  0.00000000E+00
  0.00000000E+00  0.00000000E+00  0.00000000E+00
  0.00000000E+00  0.00000000E+00  0.00000000E+00
  0.00000000E+00  0.00000000E+00  0.00000000E+00
  0.00000000E+00  0.00000000E+00  0.00000000E+00
  0.00000000E+00  0.00000000E+00  0.00000000E+00
  0.00000000E+00  0.00000000E+00  0.00000000E+00
  0.00000000E+00  0.00000000E+00  0.00000000E+00
  0.00000000E+00  0.00000000E+00  0.00000000E+00
  0.00000000E+00  0.00000000E+00  0.00000000E+00
  0.00000000E+00  0.00000000E+00  0.00000000E+00
  0.00000000E+00  0.00000000E+00  0.00000000E+00
  0.00000000E+00  0.00000000E+00  0.00000000E+00
  0.00000000E+00  0.00000000E+00  0.00000000E+00
  0.00000000E+00  0.00000000E+00  0.00000000E+00
  0.00000000E+00  0.00000000E+00  0.00000000E+00
  0.00000000E+00  0.00000000E+00  0.00000000E+00
  0.00000000E+00  0.00000000E+00  0.00000000E+00
  0.00000000E+00  0.00000000E+00  0.00000000E+00
  0.00000000E+00  0.00000000E+00  0.00000000E+00
  0.00000000E+00  0.00000000E+00  0.00000000E+00
  0.00000000E+00  0.00000000E+00  0.00000000E+00
  0.00000000E+00  0.00000000E+00  0.00000000E+00
  0.00000000E+00  0.00000000E+00  0.00000000E+00
  0.00000000E+00  0.00000000E+00  0.00000000E+00
  0.00000000E+00  0.00000000E+00  0.00000000E+00
  0.00000000E+00  0.00000000E+00  0.00000000E+00
  0.00000000E+00  0.00000000E+00  0.00000000E+00
  0.00000000E+00  0.00000000E+00  0.00000000E+00
  0.00000000E+00  0.00000000E+00  0.00000000E+00
  0.00000000E+00  0.00000000E+00  0.00000000E+00
  0.00000000E+00  0.00000000E+00  0.00000000E+00
  0.00000000E+00  0.00000000E+00  0.00000000E+00
  0.00000000E+00  0.00000000E+00  0.00000000E+00
  0.00000000E+00  0.00000000E+00  0.00000000E+00
  0.00000000E+00  0.00000000E+00  0.00000000E+00
  0.00000000E+00  0.00000000E+00  0.00000000E+00
  0.00000000E+00  0.00000000E+00  0.00000000E+00
  0.00000000E+00  0.00000000E+00  0.00000000E+00
  0.00000000E+00  0.00000000E+00  0.00000000E+00
  0.00000000E+00  0.00000000E+00  0.00000000E+00
