RuN5                                    
   1.00000000000000     
    17.0990259999999985   -9.8721239999999995    0.0000000000000000
     0.0000000000000000   19.7442530000000005    0.0000000000000000
     0.0000000000000000    0.0000000000000000   20.0000000000000000
   C    N    Ru
   121     5     1
Selective dynamics
Direct
  0.0210347907168219  0.9792787597722293  0.0000000000000000   T   T   T
  0.1038719697352064  0.0200357429234941  0.0000000000000000   T   T   T
  0.1457774019371522  0.9784726468428303  0.0000000000000000   T   T   T
  0.2289348975506196  0.0197997084045854  0.0000000000000000   T   T   T
  0.2708401729060454  0.9782696619681864  0.0000000000000000   T   T   T
  0.3540620388860767  0.0200037172289257  0.0000000000000000   T   T   T
  0.3958859179248793  0.9783824748009824  0.0000000000000000   T   T   T
  0.4791732972947768  0.0208391943561289  0.0000000000000000   T   T   T
  0.5208282356632294  0.9791140176669542  0.0000000000000000   T   T   T
  0.6041263732042013  0.0215888428921667  0.0000000000000000   T   T   T
  0.6459507823289038  0.9799255573755831  0.0000000000000000   T   T   T
  0.7291830674878179  0.0217940626666216  0.0000000000000000   T   T   T
  0.7710642738841047  0.9802411289351837  0.0000000000000000   T   T   T
  0.8543164205669448  0.0216761920510131  0.0000000000000000   T   T   T
  0.8963970875172617  0.9802938263061730  0.0000000000000000   T   T   T
  0.9792561121960967  0.0210847167429046  0.0000000000000000   T   T   T
  0.0200533515487857  0.1039541865390045  0.0000000000000000   T   T   T
  0.1029249017011809  0.1447206861605788  0.0000000000000000   T   T   T
  0.1446181201350806  0.1029029187361905  0.0000000000000000   T   T   T
  0.2274303356574472  0.1436748444545001  0.0000000000000000   T   T   T
  0.2698146866490586  0.1027194815950096  0.0000000000000000   T   T   T
  0.3531539701455929  0.1445487775174053  0.0000000000000000   T   T   T
  0.3952074532248538  0.1033799751127367  0.0000000000000000   T   T   T
  0.4785523633115870  0.1459426020789460  0.0000000000000000   T   T   T
  0.5204200730189146  0.1044014666868309  0.0000000000000000   T   T   T
  0.6036244000734753  0.1471276782883283  0.0000000000000000   T   T   T
  0.6453265925004216  0.1051702107588829  0.0000000000000000   T   T   T
  0.7286484135983933  0.1468181361374001  0.0000000000000000   T   T   T
  0.7704053732379724  0.1050446990544345  0.0000000000000000   T   T   T
  0.8535929663000097  0.1464541788024985  0.0000000000000000   T   T   T
  0.8953836968727453  0.1047256846055533  0.0000000000000000   T   T   T
  0.9784441136487901  0.1458122432225840  0.0000000000000000   T   T   T
  0.0198098908910164  0.2289975513539830  0.0000000000000000   T   T   T
  0.1027564905544636  0.2699276106511444  0.0000000000000000   T   T   T
  0.1437824880250639  0.2276034735760121  0.0000000000000000   T   T   T
  0.2264025349642302  0.2679086417851771  0.0000000000000000   T   T   T
  0.2676860805405760  0.2262532478422310  0.0000000000000000   T   T   T
  0.3505372074325663  0.2674040075148220  0.0000000000000000   T   T   T
  0.3939415908795823  0.2274766993649027  0.0000000000000000   T   T   T
  0.4775767630767647  0.2701719114733381  0.0000000000000000   T   T   T
  0.5194664882693844  0.2292396821776762  0.0000000000000000   T   T   T
  0.6028781125750038  0.2732362077220917  0.0000000000000000   T   T   T
  0.6449340316746595  0.2310271627436782  0.0000000000000000   T   T   T
  0.7280141843496318  0.2719720812174252  0.0000000000000000   T   T   T
  0.7699404764059525  0.2300587687511496  0.0000000000000000   T   T   T
  0.8531950115506058  0.2713806749435769  0.0000000000000000   T   T   T
  0.8949739235113605  0.2296320539442238  0.0000000000000000   T   T   T
  0.9782226736636470  0.2708563775526231  0.0000000000000000   T   T   T
  0.0199769565332714  0.3540637782896843  0.0000000000000000   T   T   T
  0.1033364773981591  0.3952072394691714  0.0000000000000000   T   T   T
  0.1446320233796002  0.3532679574739981  0.0000000000000000   T   T   T
  0.2276005611382433  0.3941238620416494  0.0000000000000000   T   T   T
  0.2677503641099785  0.3509387598365834  0.0000000000000000   T   T   T
  0.3494108332023412  0.3917502183460407  0.0000000000000000   T   T   T
  0.3913972114472124  0.3490429755289312  0.0000000000000000   T   T   T
  0.5159459421709165  0.3534190590234110  0.0000000000000000   T   T   T
  0.6433569214540203  0.3566067018039784  0.0000000000000000   T   T   T
  0.7267622018554836  0.3971262438681821  0.0000000000000000   T   T   T
  0.7689383393074679  0.3550772824316811  0.0000000000000000   T   T   T
  0.8528207662366007  0.3963813628089244  0.0000000000000000   T   T   T
  0.8947817321466388  0.3546737478195317  0.0000000000000000   T   T   T
  0.9783186417010046  0.3958831235093491  0.0000000000000000   T   T   T
  0.0207607940863591  0.4791501208277670  0.0000000000000000   T   T   T
  0.1043139802894867  0.5204075361530126  0.0000000000000000   T   T   T
  0.1458684270101533  0.4785082247021699  0.0000000000000000   T   T   T
  0.2291920603423349  0.5194949623233841  0.0000000000000000   T   T   T
  0.2704595077919865  0.4776745369490099  0.0000000000000000   T   T   T
  0.3537969848431804  0.5168704818051320  0.0000000000000000   T   T   T
  0.6460131221471493  0.4839830041971087  0.0000000000000000   T   T   T
  0.7295564951508703  0.5224805268918933  0.0000000000000000   T   T   T
  0.7705766738542725  0.4805129594527220  0.0000000000000000   T   T   T
  0.8539048033806931  0.5214142410922448  0.0000000000000000   T   T   T
  0.8954824069368065  0.4795340048628760  0.0000000000000000   T   T   T
  0.9790403936689620  0.5208123811914183  0.0000000000000000   T   T   T
  0.0215735575382400  0.6041050700473813  0.0000000000000000   T   T   T
  0.1050358723774770  0.6453526167339302  0.0000000000000000   T   T   T
  0.1468749438599936  0.6036080103454120  0.0000000000000000   T   T   T
  0.2306008071795459  0.6449633026411902  0.0000000000000000   T   T   T
  0.2725085259726509  0.6028306645878574  0.0000000000000000   T   T   T
  0.3557465371457856  0.6431721938821198  0.0000000000000000   T   T   T
  0.4821672766610617  0.6456127099857532  0.0000000000000000   T   T   T
  0.5263686323236445  0.6084222207306458  0.0000000000000000   T   T   T
  0.6097166990895392  0.6508316856040113  0.0000000000000000   T   T   T
  0.6525746230094384  0.6095125602044426  0.0000000000000000   T   T   T
  0.7334836458183942  0.6495695275752036  0.0000000000000000   T   T   T
  0.7729853882011849  0.6059618310412861  0.0000000000000000   T   T   T
  0.8558121717727307  0.6468644006984197  0.0000000000000000   T   T   T
  0.8967698253074002  0.6047829301965472  0.0000000000000000   T   T   T
  0.9800932292320964  0.6459811527684768  0.0000000000000000   T   T   T
  0.0218362959460225  0.7292044909142905  0.0000000000000000   T   T   T
  0.1050390780056627  0.7704599379328150  0.0000000000000000   T   T   T
  0.1467207054958083  0.7286604699092943  0.0000000000000000   T   T   T
  0.2299869110814897  0.7699873284990651  0.0000000000000000   T   T   T
  0.2717642851099828  0.7280534501161977  0.0000000000000000   T   T   T
  0.3549405861821937  0.7689672626512130  0.0000000000000000   T   T   T
  0.3969311370605934  0.7268692889532501  0.0000000000000000   T   T   T
  0.4804461306434534  0.7706624387124124  0.0000000000000000   T   T   T
  0.5218353771125082  0.7290424245844810  0.0000000000000000   T   T   T
  0.6057791567735236  0.7720081756133598  0.0000000000000000   T   T   T
  0.6498089125101109  0.7326176032083754  0.0000000000000000   T   T   T
  0.7327133394739558  0.7740985127912249  0.0000000000000000   T   T   T
  0.7742994174392289  0.7327115733560154  0.0000000000000000   T   T   T
  0.8566817330147979  0.7728642994365309  0.0000000000000000   T   T   T
  0.8975556491953092  0.7302947616219727  0.0000000000000000   T   T   T
  0.9803562207681186  0.7711808012902366  0.0000000000000000   T   T   T
  0.0217398440778387  0.8544190636619828  0.0000000000000000   T   T   T
  0.1047231166273936  0.8954267463781697  0.0000000000000000   T   T   T
  0.1464412789604462  0.8536505478149123  0.0000000000000000   T   T   T
  0.2295997833119666  0.8950195846861486  0.0000000000000000   T   T   T
  0.2713515445408178  0.8532611877142836  0.0000000000000000   T   T   T
  0.3546578961000289  0.8948431848875796  0.0000000000000000   T   T   T
  0.3963335535138670  0.8528684283659895  0.0000000000000000   T   T   T
  0.4795384539116738  0.8955068801122593  0.0000000000000000   T   T   T
  0.5213910300558267  0.8539391498712245  0.0000000000000000   T   T   T
  0.6048102531120877  0.8965300100283871  0.0000000000000000   T   T   T
  0.6466488203175429  0.8551447968945400  0.0000000000000000   T   T   T
  0.7301321143594719  0.8972776835823191  0.0000000000000000   T   T   T
  0.7728899135127881  0.8566253863134631  0.0000000000000000   T   T   T
  0.8556905756677113  0.8974413483408985  0.0000000000000000   T   T   T
  0.8974600764599244  0.8557005002650466  0.0000000000000000   T   T   T
  0.9802707255249961  0.8964088024684409  0.0000000000000000   T   T   T
  0.4726112039571794  0.3883235026782909  0.0000000000000000   T   T   T
  0.6008321198897669  0.3990826315289840  0.0000000000000000   T   T   T
  0.3898904432350138  0.4735470373732046  0.0000000000000000   T   T   T
  0.6110345695220840  0.5277511992214583  0.0000000000000000   T   T   T
  0.3972764224822665  0.6009674461409414  0.0000000000000000   T   T   T
  0.5000723681854138  0.5008527190391648  0.0000000000000000   T   T   T
 
  0.00000000E+00  0.00000000E+00  0.00000000E+00
  0.00000000E+00  0.00000000E+00  0.00000000E+00
  0.00000000E+00  0.00000000E+00  0.00000000E+00
  0.00000000E+00  0.00000000E+00  0.00000000E+00
  0.00000000E+00  0.00000000E+00  0.00000000E+00
  0.00000000E+00  0.00000000E+00  0.00000000E+00
  0.00000000E+00  0.00000000E+00  0.00000000E+00
  0.00000000E+00  0.00000000E+00  0.00000000E+00
  0.00000000E+00  0.00000000E+00  0.00000000E+00
  0.00000000E+00  0.00000000E+00  0.00000000E+00
  0.00000000E+00  0.00000000E+00  0.00000000E+00
  0.00000000E+00  0.00000000E+00  0.00000000E+00
  0.00000000E+00  0.00000000E+00  0.00000000E+00
  0.00000000E+00  0.00000000E+00  0.00000000E+00
  0.00000000E+00  0.00000000E+00  0.00000000E+00
  0.00000000E+00  0.00000000E+00  0.00000000E+00
  0.00000000E+00  0.00000000E+00  0.00000000E+00
  0.00000000E+00  0.00000000E+00  0.00000000E+00
  0.00000000E+00  0.00000000E+00  0.00000000E+00
  0.00000000E+00  0.00000000E+00  0.00000000E+00
  0.00000000E+00  0.00000000E+00  0.00000000E+00
  0.00000000E+00  0.00000000E+00  0.00000000E+00
  0.00000000E+00  0.00000000E+00  0.00000000E+00
  0.00000000E+00  0.00000000E+00  0.00000000E+00
  0.00000000E+00  0.00000000E+00  0.00000000E+00
  0.00000000E+00  0.00000000E+00  0.00000000E+00
  0.00000000E+00  0.00000000E+00  0.00000000E+00
  0.00000000E+00  0.00000000E+00  0.00000000E+00
  0.00000000E+00  0.00000000E+00  0.00000000E+00
  0.00000000E+00  0.00000000E+00  0.00000000E+00
  0.00000000E+00  0.00000000E+00  0.00000000E+00
  0.00000000E+00  0.00000000E+00  0.00000000E+00
  0.00000000E+00  0.00000000E+00  0.00000000E+00
  0.00000000E+00  0.00000000E+00  0.00000000E+00
  0.00000000E+00  0.00000000E+00  0.00000000E+00
  0.00000000E+00  0.00000000E+00  0.00000000E+00
  0.00000000E+00  0.00000000E+00  0.00000000E+00
  0.00000000E+00  0.00000000E+00  0.00000000E+00
  0.00000000E+00  0.00000000E+00  0.00000000E+00
  0.00000000E+00  0.00000000E+00  0.00000000E+00
  0.00000000E+00  0.00000000E+00  0.00000000E+00
  0.00000000E+00  0.00000000E+00  0.00000000E+00
  0.00000000E+00  0.00000000E+00  0.00000000E+00
  0.00000000E+00  0.00000000E+00  0.00000000E+00
  0.00000000E+00  0.00000000E+00  0.00000000E+00
  0.00000000E+00  0.00000000E+00  0.00000000E+00
  0.00000000E+00  0.00000000E+00  0.00000000E+00
  0.00000000E+00  0.00000000E+00  0.00000000E+00
  0.00000000E+00  0.00000000E+00  0.00000000E+00
  0.00000000E+00  0.00000000E+00  0.00000000E+00
  0.00000000E+00  0.00000000E+00  0.00000000E+00
  0.00000000E+00  0.00000000E+00  0.00000000E+00
  0.00000000E+00  0.00000000E+00  0.00000000E+00
  0.00000000E+00  0.00000000E+00  0.00000000E+00
  0.00000000E+00  0.00000000E+00  0.00000000E+00
  0.00000000E+00  0.00000000E+00  0.00000000E+00
  0.00000000E+00  0.00000000E+00  0.00000000E+00
  0.00000000E+00  0.00000000E+00  0.00000000E+00
  0.00000000E+00  0.00000000E+00  0.00000000E+00
  0.00000000E+00  0.00000000E+00  0.00000000E+00
  0.00000000E+00  0.00000000E+00  0.00000000E+00
  0.00000000E+00  0.00000000E+00  0.00000000E+00
  0.00000000E+00  0.00000000E+00  0.00000000E+00
  0.00000000E+00  0.00000000E+00  0.00000000E+00
  0.00000000E+00  0.00000000E+00  0.00000000E+00
  0.00000000E+00  0.00000000E+00  0.00000000E+00
  0.00000000E+00  0.00000000E+00  0.00000000E+00
  0.00000000E+00  0.00000000E+00  0.00000000E+00
  0.00000000E+00  0.00000000E+00  0.00000000E+00
  0.00000000E+00  0.00000000E+00  0.00000000E+00
  0.00000000E+00  0.00000000E+00  0.00000000E+00
  0.00000000E+00  0.00000000E+00  0.00000000E+00
  0.00000000E+00  0.00000000E+00  0.00000000E+00
  0.00000000E+00  0.00000000E+00  0.00000000E+00
  0.00000000E+00  0.00000000E+00  0.00000000E+00
  0.00000000E+00  0.00000000E+00  0.00000000E+00
  0.00000000E+00  0.00000000E+00  0.00000000E+00
  0.00000000E+00  0.00000000E+00  0.00000000E+00
  0.00000000E+00  0.00000000E+00  0.00000000E+00
  0.00000000E+00  0.00000000E+00  0.00000000E+00
  0.00000000E+00  0.00000000E+00  0.00000000E+00
  0.00000000E+00  0.00000000E+00  0.00000000E+00
  0.00000000E+00  0.00000000E+00  0.00000000E+00
  0.00000000E+00  0.00000000E+00  0.00000000E+00
  0.00000000E+00  0.00000000E+00  0.00000000E+00
  0.00000000E+00  0.00000000E+00  0.00000000E+00
  0.00000000E+00  0.00000000E+00  0.00000000E+00
  0.00000000E+00  0.00000000E+00  0.00000000E+00
  0.00000000E+00  0.00000000E+00  0.00000000E+00
  0.00000000E+00  0.00000000E+00  0.00000000E+00
  0.00000000E+00  0.00000000E+00  0.00000000E+00
  0.00000000E+00  0.00000000E+00  0.00000000E+00
  0.00000000E+00  0.00000000E+00  0.00000000E+00
  0.00000000E+00  0.00000000E+00  0.00000000E+00
  0.00000000E+00  0.00000000E+00  0.00000000E+00
  0.00000000E+00  0.00000000E+00  0.00000000E+00
  0.00000000E+00  0.00000000E+00  0.00000000E+00
  0.00000000E+00  0.00000000E+00  0.00000000E+00
  0.00000000E+00  0.00000000E+00  0.00000000E+00
  0.00000000E+00  0.00000000E+00  0.00000000E+00
  0.00000000E+00  0.00000000E+00  0.00000000E+00
  0.00000000E+00  0.00000000E+00  0.00000000E+00
  0.00000000E+00  0.00000000E+00  0.00000000E+00
  0.00000000E+00  0.00000000E+00  0.00000000E+00
  0.00000000E+00  0.00000000E+00  0.00000000E+00
  0.00000000E+00  0.00000000E+00  0.00000000E+00
  0.00000000E+00  0.00000000E+00  0.00000000E+00
  0.00000000E+00  0.00000000E+00  0.00000000E+00
  0.00000000E+00  0.00000000E+00  0.00000000E+00
  0.00000000E+00  0.00000000E+00  0.00000000E+00
  0.00000000E+00  0.00000000E+00  0.00000000E+00
  0.00000000E+00  0.00000000E+00  0.00000000E+00
  0.00000000E+00  0.00000000E+00  0.00000000E+00
  0.00000000E+00  0.00000000E+00  0.00000000E+00
  0.00000000E+00  0.00000000E+00  0.00000000E+00
  0.00000000E+00  0.00000000E+00  0.00000000E+00
  0.00000000E+00  0.00000000E+00  0.00000000E+00
  0.00000000E+00  0.00000000E+00  0.00000000E+00
  0.00000000E+00  0.00000000E+00  0.00000000E+00
  0.00000000E+00  0.00000000E+00  0.00000000E+00
  0.00000000E+00  0.00000000E+00  0.00000000E+00
  0.00000000E+00  0.00000000E+00  0.00000000E+00
  0.00000000E+00  0.00000000E+00  0.00000000E+00
  0.00000000E+00  0.00000000E+00  0.00000000E+00
  0.00000000E+00  0.00000000E+00  0.00000000E+00
  0.00000000E+00  0.00000000E+00  0.00000000E+00
  0.00000000E+00  0.00000000E+00  0.00000000E+00
