RuN4                                    
   1.00000000000000     
    17.0990259999999985   -9.8721239999999995    0.0000000000000000
     0.0000000000000000   19.7442530000000005    0.0000000000000000
     0.0000000000000000    0.0000000000000000   20.0000000000000000
   C    N    Ru
   122     4     1
Selective dynamics
Direct
  0.0209102649892271  0.9791209057735105  0.0000000000000000   T   T   T
  0.1036363628155404  0.0196882718071897  0.0000000000000000   T   T   T
  0.1456221641291983  0.9782194586436704  0.0000000000000000   T   T   T
  0.2287545631342283  0.0195043431732800  0.0000000000000000   T   T   T
  0.2708345433864710  0.9780921041251339  0.0000000000000000   T   T   T
  0.3540288854547502  0.0199174583357336  0.0000000000000000   T   T   T
  0.3959313022454626  0.9783881352542212  0.0000000000000000   T   T   T
  0.4791186299843489  0.0208491787283329  0.0000000000000000   T   T   T
  0.5208932636324219  0.9792148355662442  0.0000000000000000   T   T   T
  0.6040806854403419  0.0216697121467109  0.0000000000000000   T   T   T
  0.6459834440896650  0.9801384211198270  0.0000000000000000   T   T   T
  0.7291782118658504  0.0219628513082027  0.0000000000000000   T   T   T
  0.7712574765599587  0.9805494550615423  0.0000000000000000   T   T   T
  0.8543896768756519  0.0218361744533522  0.0000000000000000   T   T   T
  0.8963748589166213  0.9803664450130020  0.0000000000000000   T   T   T
  0.9791009262919476  0.0209308805136650  0.0000000000000000   T   T   T
  0.0196673331379695  0.1036570707159059  0.0000000000000000   T   T   T
  0.1024010336006562  0.1441695518720760  0.0000000000000000   T   T   T
  0.1441496076295799  0.1024207141566792  0.0000000000000000   T   T   T
  0.2268552055458006  0.1430815114078508  0.0000000000000000   T   T   T
  0.2694775101136417  0.1022589815737696  0.0000000000000000   T   T   T
  0.3527648803911727  0.1440837951880050  0.0000000000000000   T   T   T
  0.3951234570062586  0.1032443525871452  0.0000000000000000   T   T   T
  0.4783925900041736  0.1460746919861448  0.0000000000000000   T   T   T
  0.5202920099430967  0.1045188097147299  0.0000000000000000   T   T   T
  0.6034878311024047  0.1470340291446425  0.0000000000000000   T   T   T
  0.6452777152197342  0.1051777620730000  0.0000000000000000   T   T   T
  0.7285130740193589  0.1468706526551641  0.0000000000000000   T   T   T
  0.7703453416607849  0.1051764697820817  0.0000000000000000   T   T   T
  0.8535034792631183  0.1465318776007265  0.0000000000000000   T   T   T
  0.8952666838340316  0.1047676435047339  0.0000000000000000   T   T   T
  0.9781989224625264  0.1456435219919593  0.0000000000000000   T   T   T
  0.0194858225288741  0.2287751637454635  0.0000000000000000   T   T   T
  0.1022400056834786  0.2694983623701133  0.0000000000000000   T   T   T
  0.1430618440420118  0.2268757662814765  0.0000000000000000   T   T   T
  0.2254157175341378  0.2668933924831010  0.0000000000000000   T   T   T
  0.2668718887046523  0.2254355977092898  0.0000000000000000   T   T   T
  0.3496846765898586  0.2663733002972729  0.0000000000000000   T   T   T
  0.3933906517746475  0.2268490431801475  0.0000000000000000   T   T   T
  0.4767194435540316  0.2704876664929259  0.0000000000000000   T   T   T
  0.5194505998000145  0.2297260065517990  0.0000000000000000   T   T   T
  0.6027287016839125  0.2727894181425200  0.0000000000000000   T   T   T
  0.6446650018555792  0.2307978651130654  0.0000000000000000   T   T   T
  0.7279907124392347  0.2720438468478031  0.0000000000000000   T   T   T
  0.7698098356511651  0.2302250831860189  0.0000000000000000   T   T   T
  0.8531646456417055  0.2715210961654171  0.0000000000000000   T   T   T
  0.8948600022898050  0.2296895377165157  0.0000000000000000   T   T   T
  0.9780731643215259  0.2708550806012076  0.0000000000000000   T   T   T
  0.0198973878944949  0.3540499162447737  0.0000000000000000   T   T   T
  0.1032235638364691  0.3951458964723850  0.0000000000000000   T   T   T
  0.1440624718804453  0.3527865387632608  0.0000000000000000   T   T   T
  0.2268264474745046  0.3934127506398306  0.0000000000000000   T   T   T
  0.2663532485225723  0.3497112384406568  0.0000000000000000   T   T   T
  0.3476711718616817  0.3898481502434246  0.0000000000000000   T   T   T
  0.3898254587532688  0.3476935556800607  0.0000000000000000   T   T   T
  0.5156610733465894  0.3541041606402942  0.0000000000000000   T   T   T
  0.6006880160307869  0.3993495579133330  0.0000000000000000   T   T   T
  0.6431228539787117  0.3569149765185231  0.0000000000000000   T   T   T
  0.7272445364942285  0.3973056829860232  0.0000000000000000   T   T   T
  0.7692367856908892  0.3553694484607307  0.0000000000000000   T   T   T
  0.8530018282617181  0.3965469598968577  0.0000000000000000   T   T   T
  0.8948578358741182  0.3547563656892033  0.0000000000000000   T   T   T
  0.9783654177866440  0.3959522440167538  0.0000000000000000   T   T   T
  0.0208212979260526  0.4791395340758534  0.0000000000000000   T   T   T
  0.1044900667163657  0.5203146153102769  0.0000000000000000   T   T   T
  0.1460510201514335  0.4784152734821814  0.0000000000000000   T   T   T
  0.2297033264908800  0.5194726176561841  0.0000000000000000   T   T   T
  0.2704653415860995  0.4767412225017675  0.0000000000000000   T   T   T
  0.3540820255915024  0.5156834636642340  0.0000000000000000   T   T   T
  0.6459320301808797  0.4843752234297294  0.0000000000000000   T   T   T
  0.7295479371579601  0.5233158890360554  0.0000000000000000   T   T   T
  0.7703086924504128  0.4805835086546501  0.0000000000000000   T   T   T
  0.8539606319990204  0.5216425630293742  0.0000000000000000   T   T   T
  0.8955185580487446  0.4797425083721083  0.0000000000000000   T   T   T
  0.9791885724297332  0.5209146926167747  0.0000000000000000   T   T   T
  0.0216470810612390  0.6041019129941847  0.0000000000000000   T   T   T
  0.1051554435866469  0.6452983231697749  0.0000000000000000   T   T   T
  0.1470114009279748  0.6035085723637517  0.0000000000000000   T   T   T
  0.2307760715440734  0.6446853433870303  0.0000000000000000   T   T   T
  0.2727679532085892  0.6027501174166863  0.0000000000000000   T   T   T
  0.3568910574582134  0.6431442315540103  0.0000000000000000   T   T   T
  0.3993245638276421  0.6007130456011091  0.0000000000000000   T   T   T
  0.4843528117944620  0.6459560720825942  0.0000000000000000   T   T   T
  0.6101868131678539  0.6523650882495262  0.0000000000000000   T   T   T
  0.6523417587683163  0.6102116880306124  0.0000000000000000   T   T   T
  0.7336633258030157  0.6503538244121514  0.0000000000000000   T   T   T
  0.7731863165015469  0.6066446096693672  0.0000000000000000   T   T   T
  0.8559500327909928  0.6472680590215052  0.0000000000000000   T   T   T
  0.8967896171043162  0.6049096727049018  0.0000000000000000   T   T   T
  0.9801162460923907  0.6460039140070479  0.0000000000000000   T   T   T
  0.0219413339225230  0.7291979935372102  0.0000000000000000   T   T   T
  0.1051553027678319  0.7703659197957466  0.0000000000000000   T   T   T
  0.1468491380692042  0.7285336037130945  0.0000000000000000   T   T   T
  0.2302044117429037  0.7698301897136652  0.0000000000000000   T   T   T
  0.2720227416777742  0.7280109371641214  0.0000000000000000   T   T   T
  0.3553486401039743  0.7692583079129629  0.0000000000000000   T   T   T
  0.3972840000318749  0.7272665784063524  0.0000000000000000   T   T   T
  0.4805620915723087  0.7703324431769852  0.0000000000000000   T   T   T
  0.5232950606481084  0.7295728213017039  0.0000000000000000   T   T   T
  0.6066224228188768  0.7732097045134695  0.0000000000000000   T   T   T
  0.6503276075293140  0.7336858723177455  0.0000000000000000   T   T   T
  0.7331416123585511  0.7746206947063564  0.0000000000000000   T   T   T
  0.7745989931110898  0.7331642701323955  0.0000000000000000   T   T   T
  0.8569520235041240  0.7731780262568509  0.0000000000000000   T   T   T
  0.8977741635405506  0.7305553357599814  0.0000000000000000   T   T   T
  0.9805282510580435  0.7712773969752550  0.0000000000000000   T   T   T
  0.0218130170469449  0.8544098903390993  0.0000000000000000   T   T   T
  0.1047434846059960  0.8952888511940096  0.0000000000000000   T   T   T
  0.1465106160138803  0.8535230690897032  0.0000000000000000   T   T   T
  0.2296688605356422  0.8948795401899855  0.0000000000000000   T   T   T
  0.2715003994767600  0.8531849652721825  0.0000000000000000   T   T   T
  0.3547359420330287  0.8948788422664086  0.0000000000000000   T   T   T
  0.3965260457965217  0.8530237249939613  0.0000000000000000   T   T   T
  0.4797196540088181  0.8955457170883214  0.0000000000000000   T   T   T
  0.5216187620982061  0.8539844334313470  0.0000000000000000   T   T   T
  0.6048883379343251  0.8968118918488608  0.0000000000000000   T   T   T
  0.6472473352453968  0.8559728557360933  0.0000000000000000   T   T   T
  0.7305354129623896  0.8977958412672229  0.0000000000000000   T   T   T
  0.7731574650002283  0.8569731882939136  0.0000000000000000   T   T   T
  0.8558633345681913  0.8976337375638826  0.0000000000000000   T   T   T
  0.8976110670579396  0.8558830414125596  0.0000000000000000   T   T   T
  0.9803434411915398  0.8963952949781772  0.0000000000000000   T   T   T
  0.4703454255025933  0.3891358767856265  0.0000000000000000   T   T   T
  0.3891150025416514  0.4703686030734927  0.0000000000000000   T   T   T
  0.6109005136126706  0.5296914247195923  0.0000000000000000   T   T   T
  0.5296668938946250  0.6109219454968177  0.0000000000000000   T   T   T
  0.5000074535216600  0.5000288466128369  0.0000000000000000   T   T   T
 
  0.00000000E+00  0.00000000E+00  0.00000000E+00
  0.00000000E+00  0.00000000E+00  0.00000000E+00
  0.00000000E+00  0.00000000E+00  0.00000000E+00
  0.00000000E+00  0.00000000E+00  0.00000000E+00
  0.00000000E+00  0.00000000E+00  0.00000000E+00
  0.00000000E+00  0.00000000E+00  0.00000000E+00
  0.00000000E+00  0.00000000E+00  0.00000000E+00
  0.00000000E+00  0.00000000E+00  0.00000000E+00
  0.00000000E+00  0.00000000E+00  0.00000000E+00
  0.00000000E+00  0.00000000E+00  0.00000000E+00
  0.00000000E+00  0.00000000E+00  0.00000000E+00
  0.00000000E+00  0.00000000E+00  0.00000000E+00
  0.00000000E+00  0.00000000E+00  0.00000000E+00
  0.00000000E+00  0.00000000E+00  0.00000000E+00
  0.00000000E+00  0.00000000E+00  0.00000000E+00
  0.00000000E+00  0.00000000E+00  0.00000000E+00
  0.00000000E+00  0.00000000E+00  0.00000000E+00
  0.00000000E+00  0.00000000E+00  0.00000000E+00
  0.00000000E+00  0.00000000E+00  0.00000000E+00
  0.00000000E+00  0.00000000E+00  0.00000000E+00
  0.00000000E+00  0.00000000E+00  0.00000000E+00
  0.00000000E+00  0.00000000E+00  0.00000000E+00
  0.00000000E+00  0.00000000E+00  0.00000000E+00
  0.00000000E+00  0.00000000E+00  0.00000000E+00
  0.00000000E+00  0.00000000E+00  0.00000000E+00
  0.00000000E+00  0.00000000E+00  0.00000000E+00
  0.00000000E+00  0.00000000E+00  0.00000000E+00
  0.00000000E+00  0.00000000E+00  0.00000000E+00
  0.00000000E+00  0.00000000E+00  0.00000000E+00
  0.00000000E+00  0.00000000E+00  0.00000000E+00
  0.00000000E+00  0.00000000E+00  0.00000000E+00
  0.00000000E+00  0.00000000E+00  0.00000000E+00
  0.00000000E+00  0.00000000E+00  0.00000000E+00
  0.00000000E+00  0.00000000E+00  0.00000000E+00
  0.00000000E+00  0.00000000E+00  0.00000000E+00
  0.00000000E+00  0.00000000E+00  0.00000000E+00
  0.00000000E+00  0.00000000E+00  0.00000000E+00
  0.00000000E+00  0.00000000E+00  0.00000000E+00
  0.00000000E+00  0.00000000E+00  0.00000000E+00
  0.00000000E+00  0.00000000E+00  0.00000000E+00
  0.00000000E+00  0.00000000E+00  0.00000000E+00
  0.00000000E+00  0.00000000E+00  0.00000000E+00
  0.00000000E+00  0.00000000E+00  0.00000000E+00
  0.00000000E+00  0.00000000E+00  0.00000000E+00
  0.00000000E+00  0.00000000E+00  0.00000000E+00
  0.00000000E+00  0.00000000E+00  0.00000000E+00
  0.00000000E+00  0.00000000E+00  0.00000000E+00
  0.00000000E+00  0.00000000E+00  0.00000000E+00
  0.00000000E+00  0.00000000E+00  0.00000000E+00
  0.00000000E+00  0.00000000E+00  0.00000000E+00
  0.00000000E+00  0.00000000E+00  0.00000000E+00
  0.00000000E+00  0.00000000E+00  0.00000000E+00
  0.00000000E+00  0.00000000E+00  0.00000000E+00
  0.00000000E+00  0.00000000E+00  0.00000000E+00
  0.00000000E+00  0.00000000E+00  0.00000000E+00
  0.00000000E+00  0.00000000E+00  0.00000000E+00
  0.00000000E+00  0.00000000E+00  0.00000000E+00
  0.00000000E+00  0.00000000E+00  0.00000000E+00
  0.00000000E+00  0.00000000E+00  0.00000000E+00
  0.00000000E+00  0.00000000E+00  0.00000000E+00
  0.00000000E+00  0.00000000E+00  0.00000000E+00
  0.00000000E+00  0.00000000E+00  0.00000000E+00
  0.00000000E+00  0.00000000E+00  0.00000000E+00
  0.00000000E+00  0.00000000E+00  0.00000000E+00
  0.00000000E+00  0.00000000E+00  0.00000000E+00
  0.00000000E+00  0.00000000E+00  0.00000000E+00
  0.00000000E+00  0.00000000E+00  0.00000000E+00
  0.00000000E+00  0.00000000E+00  0.00000000E+00
  0.00000000E+00  0.00000000E+00  0.00000000E+00
  0.00000000E+00  0.00000000E+00  0.00000000E+00
  0.00000000E+00  0.00000000E+00  0.00000000E+00
  0.00000000E+00  0.00000000E+00  0.00000000E+00
  0.00000000E+00  0.00000000E+00  0.00000000E+00
  0.00000000E+00  0.00000000E+00  0.00000000E+00
  0.00000000E+00  0.00000000E+00  0.00000000E+00
  0.00000000E+00  0.00000000E+00  0.00000000E+00
  0.00000000E+00  0.00000000E+00  0.00000000E+00
  0.00000000E+00  0.00000000E+00  0.00000000E+00
  0.00000000E+00  0.00000000E+00  0.00000000E+00
  0.00000000E+00  0.00000000E+00  0.00000000E+00
  0.00000000E+00  0.00000000E+00  0.00000000E+00
  0.00000000E+00  0.00000000E+00  0.00000000E+00
  0.00000000E+00  0.00000000E+00  0.00000000E+00
  0.00000000E+00  0.00000000E+00  0.00000000E+00
  0.00000000E+00  0.00000000E+00  0.00000000E+00
  0.00000000E+00  0.00000000E+00  0.00000000E+00
  0.00000000E+00  0.00000000E+00  0.00000000E+00
  0.00000000E+00  0.00000000E+00  0.00000000E+00
  0.00000000E+00  0.00000000E+00  0.00000000E+00
  0.00000000E+00  0.00000000E+00  0.00000000E+00
  0.00000000E+00  0.00000000E+00  0.00000000E+00
  0.00000000E+00  0.00000000E+00  0.00000000E+00
  0.00000000E+00  0.00000000E+00  0.00000000E+00
  0.00000000E+00  0.00000000E+00  0.00000000E+00
  0.00000000E+00  0.00000000E+00  0.00000000E+00
  0.00000000E+00  0.00000000E+00  0.00000000E+00
  0.00000000E+00  0.00000000E+00  0.00000000E+00
  0.00000000E+00  0.00000000E+00  0.00000000E+00
  0.00000000E+00  0.00000000E+00  0.00000000E+00
  0.00000000E+00  0.00000000E+00  0.00000000E+00
  0.00000000E+00  0.00000000E+00  0.00000000E+00
  0.00000000E+00  0.00000000E+00  0.00000000E+00
  0.00000000E+00  0.00000000E+00  0.00000000E+00
  0.00000000E+00  0.00000000E+00  0.00000000E+00
  0.00000000E+00  0.00000000E+00  0.00000000E+00
  0.00000000E+00  0.00000000E+00  0.00000000E+00
  0.00000000E+00  0.00000000E+00  0.00000000E+00
  0.00000000E+00  0.00000000E+00  0.00000000E+00
  0.00000000E+00  0.00000000E+00  0.00000000E+00
  0.00000000E+00  0.00000000E+00  0.00000000E+00
  0.00000000E+00  0.00000000E+00  0.00000000E+00
  0.00000000E+00  0.00000000E+00  0.00000000E+00
  0.00000000E+00  0.00000000E+00  0.00000000E+00
  0.00000000E+00  0.00000000E+00  0.00000000E+00
  0.00000000E+00  0.00000000E+00  0.00000000E+00
  0.00000000E+00  0.00000000E+00  0.00000000E+00
  0.00000000E+00  0.00000000E+00  0.00000000E+00
  0.00000000E+00  0.00000000E+00  0.00000000E+00
  0.00000000E+00  0.00000000E+00  0.00000000E+00
  0.00000000E+00  0.00000000E+00  0.00000000E+00
  0.00000000E+00  0.00000000E+00  0.00000000E+00
  0.00000000E+00  0.00000000E+00  0.00000000E+00
  0.00000000E+00  0.00000000E+00  0.00000000E+00
  0.00000000E+00  0.00000000E+00  0.00000000E+00
  0.00000000E+00  0.00000000E+00  0.00000000E+00
  0.00000000E+00  0.00000000E+00  0.00000000E+00
  0.00000000E+00  0.00000000E+00  0.00000000E+00
