RuN6                                    
   1.00000000000000     
    17.0990259999999985   -9.8721239999999995    0.0000000000000000
     0.0000000000000000   19.7442530000000005    0.0000000000000000
     0.0000000000000000    0.0000000000000000   20.0000000000000000
   C    N    Ru
   120     6     1
Selective dynamics
Direct
  0.0209062751804929  0.9791260050112881  0.0000000000000000   T   T   T
  0.1037826985682095  0.0198882550245203  0.0000000000000000   T   T   T
  0.1457709345623570  0.9783447150342758  0.0000000000000000   T   T   T
  0.2289296311863125  0.0196914399931075  0.0000000000000000   T   T   T
  0.2708826987330100  0.9781530264142992  0.0000000000000000   T   T   T
  0.3541105260729606  0.0199974133735082  0.0000000000000000   T   T   T
  0.3959461354173289  0.9783376824695426  0.0000000000000000   T   T   T
  0.4791693040242051  0.0209309173262046  0.0000000000000000   T   T   T
  0.5208418090954214  0.9791263839998323  0.0000000000000000   T   T   T
  0.6040646077399452  0.0217189856136355  0.0000000000000000   T   T   T
  0.6459010144346014  0.9800597931720355  0.0000000000000000   T   T   T
  0.7291289114216025  0.0219031300157294  0.0000000000000000   T   T   T
  0.7710845550854485  0.9803656033270564  0.0000000000000000   T   T   T
  0.8542439525036295  0.0217157749743009  0.0000000000000000   T   T   T
  0.8962306280794092  0.9801667111676803  0.0000000000000000   T   T   T
  0.9791063349310817  0.0209265716587456  0.0000000000000000   T   T   T
  0.0198660817038575  0.1038032771779608  0.0000000000000000   T   T   T
  0.1026876914963499  0.1444900126645004  0.0000000000000000   T   T   T
  0.1444697023191027  0.1027089710160154  0.0000000000000000   T   T   T
  0.2273073139780233  0.1435098939137633  0.0000000000000000   T   T   T
  0.2697996161499158  0.1026627113068537  0.0000000000000000   T   T   T
  0.3531803845175902  0.1446386183746756  0.0000000000000000   T   T   T
  0.3952062589501098  0.1034131399066111  0.0000000000000000   T   T   T
  0.4785016492564560  0.1462682554031941  0.0000000000000000   T   T   T
  0.5203580303299845  0.1045984152770686  0.0000000000000000   T   T   T
  0.6035016136132799  0.1473338605962336  0.0000000000000000   T   T   T
  0.6452320754687920  0.1053359918947958  0.0000000000000000   T   T   T
  0.7285058636184605  0.1469584661918477  0.0000000000000000   T   T   T
  0.7703036382551413  0.1051480001280725  0.0000000000000000   T   T   T
  0.8534983155266896  0.1465368962974442  0.0000000000000000   T   T   T
  0.8952671628977554  0.1047670745784135  0.0000000000000000   T   T   T
  0.9783185928853799  0.1457919156724417  0.0000000000000000   T   T   T
  0.0196696486789618  0.2289507667008291  0.0000000000000000   T   T   T
  0.1026414605528316  0.2698198037644575  0.0000000000000000   T   T   T
  0.1434891031360815  0.2273274497117692  0.0000000000000000   T   T   T
  0.2260397928375112  0.2675243606978308  0.0000000000000000   T   T   T
  0.2675036409105056  0.2260603463825059  0.0000000000000000   T   T   T
  0.3503365085273549  0.2672599213922181  0.0000000000000000   T   T   T
  0.3939224608742852  0.2276219373274669  0.0000000000000000   T   T   T
  0.4775267930920494  0.2710245144475344  0.0000000000000000   T   T   T
  0.5193386485230770  0.2297292890281746  0.0000000000000000   T   T   T
  0.6026573046332629  0.2735045516233121  0.0000000000000000   T   T   T
  0.6447504094547269  0.2312456557154873  0.0000000000000000   T   T   T
  0.7278465989466407  0.2721889685918795  0.0000000000000000   T   T   T
  0.7697997571289831  0.2302338393139519  0.0000000000000000   T   T   T
  0.8530753250589733  0.2715281144928463  0.0000000000000000   T   T   T
  0.8948867575880886  0.2297311755801679  0.0000000000000000   T   T   T
  0.9781308491112760  0.2709047455163359  0.0000000000000000   T   T   T
  0.0199745272328691  0.3541324201551747  0.0000000000000000   T   T   T
  0.1033898336427198  0.3952281536671358  0.0000000000000000   T   T   T
  0.1446152725346475  0.3532009478472673  0.0000000000000000   T   T   T
  0.2275986103313799  0.3939432154891434  0.0000000000000000   T   T   T
  0.2672381495003208  0.3503583585781344  0.0000000000000000   T   T   T
  0.3487289901132168  0.3907386700623710  0.0000000000000000   T   T   T
  0.3907172799617525  0.3487499995200642  0.0000000000000000   T   T   T
  0.5159637579696438  0.3545009411656230  0.0000000000000000   T   T   T
  0.6431355537601904  0.3569016656842082  0.0000000000000000   T   T   T
  0.7265306471878649  0.3973780384375292  0.0000000000000000   T   T   T
  0.7687910397407024  0.3552855351141410  0.0000000000000000   T   T   T
  0.8527013788953739  0.3965326283429194  0.0000000000000000   T   T   T
  0.8946992076900917  0.3548027043102881  0.0000000000000000   T   T   T
  0.9783174591620951  0.3959709815329949  0.0000000000000000   T   T   T
  0.0209093292012058  0.4791963510223503  0.0000000000000000   T   T   T
  0.1045756189887159  0.5203873582897074  0.0000000000000000   T   T   T
  0.1462425683112965  0.4785246319689595  0.0000000000000000   T   T   T
  0.2297056967706330  0.5193595461764288  0.0000000000000000   T   T   T
  0.2710010418801133  0.4775474700865816  0.0000000000000000   T   T   T
  0.3544786828879422  0.5159860545362596  0.0000000000000000   T   T   T
  0.6455328015319278  0.4840693861821345  0.0000000000000000   T   T   T
  0.7290098861120724  0.5225065650526028  0.0000000000000000   T   T   T
  0.7703069161051356  0.4806970188773603  0.0000000000000000   T   T   T
  0.8537686863422009  0.5215328224612272  0.0000000000000000   T   T   T
  0.8954366729037466  0.4796756585020464  0.0000000000000000   T   T   T
  0.9791030164017435  0.5208648203404380  0.0000000000000000   T   T   T
  0.0216970479280983  0.6040871100518819  0.0000000000000000   T   T   T
  0.1053151630077179  0.6452554857805750  0.0000000000000000   T   T   T
  0.1473134848740867  0.6035268274917532  0.0000000000000000   T   T   T
  0.2312239862542128  0.6447717935376779  0.0000000000000000   T   T   T
  0.2734838414119273  0.6026791194280505  0.0000000000000000   T   T   T
  0.3568804816337179  0.6431584405866865  0.0000000000000000   T   T   T
  0.4840480643328186  0.6455555174724795  0.0000000000000000   T   T   T
  0.6092959364859120  0.6513058555281624  0.0000000000000000   T   T   T
  0.6512840265930671  0.6093168311083368  0.0000000000000000   T   T   T
  0.7327739413334846  0.6496965165158152  0.0000000000000000   T   T   T
  0.7724133324420983  0.6061115466124787  0.0000000000000000   T   T   T
  0.8553970283874999  0.6468531705530760  0.0000000000000000   T   T   T
  0.8966231247602529  0.6048276126958059  0.0000000000000000   T   T   T
  0.9800383176419343  0.6459229374406066  0.0000000000000000   T   T   T
  0.0218830254753863  0.7291505194673730  0.0000000000000000   T   T   T
  0.1051277278572727  0.7703253485465213  0.0000000000000000   T   T   T
  0.1469387827315968  0.7285280572592658  0.0000000000000000   T   T   T
  0.2302139165337517  0.7698211012508803  0.0000000000000000   T   T   T
  0.2721684772421928  0.7278674224080096  0.0000000000000000   T   T   T
  0.3552650206680595  0.7688128779758451  0.0000000000000000   T   T   T
  0.3973586647175419  0.7265551680187758  0.0000000000000000   T   T   T
  0.4806780658051385  0.7703321391231066  0.0000000000000000   T   T   T
  0.5224865881864090  0.7290335646260667  0.0000000000000000   T   T   T
  0.6060914054089130  0.7724364629043876  0.0000000000000000   T   T   T
  0.6496753616019708  0.7327956497528183  0.0000000000000000   T   T   T
  0.7325091049324308  0.7739929513848828  0.0000000000000000   T   T   T
  0.7739724536512662  0.7325285009739070  0.0000000000000000   T   T   T
  0.8565225497235512  0.7727242763022897  0.0000000000000000   T   T   T
  0.8973724081290753  0.7302343803323215  0.0000000000000000   T   T   T
  0.9803457996594196  0.7711063054574534  0.0000000000000000   T   T   T
  0.0216938856133983  0.8542656132072595  0.0000000000000000   T   T   T
  0.1047433086525332  0.8952933139667190  0.0000000000000000   T   T   T
  0.1465135737063388  0.8535206455428513  0.0000000000000000   T   T   T
  0.2297089282287885  0.8949081115574046  0.0000000000000000   T   T   T
  0.2715054974741261  0.8530956816241856  0.0000000000000000   T   T   T
  0.3547785821430808  0.8947192215004038  0.0000000000000000   T   T   T
  0.3965102983042160  0.8527230740876229  0.0000000000000000   T   T   T
  0.4796524441777880  0.8954605713454109  0.0000000000000000   T   T   T
  0.5215119102044976  0.8537937362196452  0.0000000000000000   T   T   T
  0.6048064587199701  0.8966450830316426  0.0000000000000000   T   T   T
  0.6468330898966453  0.8554189487007703  0.0000000000000000   T   T   T
  0.7302145007715790  0.8973925631338259  0.0000000000000000   T   T   T
  0.7727054097211857  0.8565432127593322  0.0000000000000000   T   T   T
  0.8555426947642341  0.8973445523186692  0.0000000000000000   T   T   T
  0.8973236511124885  0.8555619667115225  0.0000000000000000   T   T   T
  0.9801457302483729  0.8962502433484522  0.0000000000000000   T   T   T
  0.4721362072523048  0.3899019962717213  0.0000000000000000   T   T   T
  0.6004504303721235  0.3995834798931774  0.0000000000000000   T   T   T
  0.3898799572429994  0.4721586055555787  0.0000000000000000   T   T   T
  0.6101309486510142  0.5278964599786844  0.0000000000000000   T   T   T
  0.3995625607378813  0.6004738349470990  0.0000000000000000   T   T   T
  0.5278749870373255  0.6101538919374214  0.0000000000000000   T   T   T
  0.5000051233393294  0.5000274091077127  0.0000000000000000   T   T   T
 
  0.00000000E+00  0.00000000E+00  0.00000000E+00
  0.00000000E+00  0.00000000E+00  0.00000000E+00
  0.00000000E+00  0.00000000E+00  0.00000000E+00
  0.00000000E+00  0.00000000E+00  0.00000000E+00
  0.00000000E+00  0.00000000E+00  0.00000000E+00
  0.00000000E+00  0.00000000E+00  0.00000000E+00
  0.00000000E+00  0.00000000E+00  0.00000000E+00
  0.00000000E+00  0.00000000E+00  0.00000000E+00
  0.00000000E+00  0.00000000E+00  0.00000000E+00
  0.00000000E+00  0.00000000E+00  0.00000000E+00
  0.00000000E+00  0.00000000E+00  0.00000000E+00
  0.00000000E+00  0.00000000E+00  0.00000000E+00
  0.00000000E+00  0.00000000E+00  0.00000000E+00
  0.00000000E+00  0.00000000E+00  0.00000000E+00
  0.00000000E+00  0.00000000E+00  0.00000000E+00
  0.00000000E+00  0.00000000E+00  0.00000000E+00
  0.00000000E+00  0.00000000E+00  0.00000000E+00
  0.00000000E+00  0.00000000E+00  0.00000000E+00
  0.00000000E+00  0.00000000E+00  0.00000000E+00
  0.00000000E+00  0.00000000E+00  0.00000000E+00
  0.00000000E+00  0.00000000E+00  0.00000000E+00
  0.00000000E+00  0.00000000E+00  0.00000000E+00
  0.00000000E+00  0.00000000E+00  0.00000000E+00
  0.00000000E+00  0.00000000E+00  0.00000000E+00
  0.00000000E+00  0.00000000E+00  0.00000000E+00
  0.00000000E+00  0.00000000E+00  0.00000000E+00
  0.00000000E+00  0.00000000E+00  0.00000000E+00
  0.00000000E+00  0.00000000E+00  0.00000000E+00
  0.00000000E+00  0.00000000E+00  0.00000000E+00
  0.00000000E+00  0.00000000E+00  0.00000000E+00
  0.00000000E+00  0.00000000E+00  0.00000000E+00
  0.00000000E+00  0.00000000E+00  0.00000000E+00
  0.00000000E+00  0.00000000E+00  0.00000000E+00
  0.00000000E+00  0.00000000E+00  0.00000000E+00
  0.00000000E+00  0.00000000E+00  0.00000000E+00
  0.00000000E+00  0.00000000E+00  0.00000000E+00
  0.00000000E+00  0.00000000E+00  0.00000000E+00
  0.00000000E+00  0.00000000E+00  0.00000000E+00
  0.00000000E+00  0.00000000E+00  0.00000000E+00
  0.00000000E+00  0.00000000E+00  0.00000000E+00
  0.00000000E+00  0.00000000E+00  0.00000000E+00
  0.00000000E+00  0.00000000E+00  0.00000000E+00
  0.00000000E+00  0.00000000E+00  0.00000000E+00
  0.00000000E+00  0.00000000E+00  0.00000000E+00
  0.00000000E+00  0.00000000E+00  0.00000000E+00
  0.00000000E+00  0.00000000E+00  0.00000000E+00
  0.00000000E+00  0.00000000E+00  0.00000000E+00
  0.00000000E+00  0.00000000E+00  0.00000000E+00
  0.00000000E+00  0.00000000E+00  0.00000000E+00
  0.00000000E+00  0.00000000E+00  0.00000000E+00
  0.00000000E+00  0.00000000E+00  0.00000000E+00
  0.00000000E+00  0.00000000E+00  0.00000000E+00
  0.00000000E+00  0.00000000E+00  0.00000000E+00
  0.00000000E+00  0.00000000E+00  0.00000000E+00
  0.00000000E+00  0.00000000E+00  0.00000000E+00
  0.00000000E+00  0.00000000E+00  0.00000000E+00
  0.00000000E+00  0.00000000E+00  0.00000000E+00
  0.00000000E+00  0.00000000E+00  0.00000000E+00
  0.00000000E+00  0.00000000E+00  0.00000000E+00
  0.00000000E+00  0.00000000E+00  0.00000000E+00
  0.00000000E+00  0.00000000E+00  0.00000000E+00
  0.00000000E+00  0.00000000E+00  0.00000000E+00
  0.00000000E+00  0.00000000E+00  0.00000000E+00
  0.00000000E+00  0.00000000E+00  0.00000000E+00
  0.00000000E+00  0.00000000E+00  0.00000000E+00
  0.00000000E+00  0.00000000E+00  0.00000000E+00
  0.00000000E+00  0.00000000E+00  0.00000000E+00
  0.00000000E+00  0.00000000E+00  0.00000000E+00
  0.00000000E+00  0.00000000E+00  0.00000000E+00
  0.00000000E+00  0.00000000E+00  0.00000000E+00
  0.00000000E+00  0.00000000E+00  0.00000000E+00
  0.00000000E+00  0.00000000E+00  0.00000000E+00
  0.00000000E+00  0.00000000E+00  0.00000000E+00
  0.00000000E+00  0.00000000E+00  0.00000000E+00
  0.00000000E+00  0.00000000E+00  0.00000000E+00
  0.00000000E+00  0.00000000E+00  0.00000000E+00
  0.00000000E+00  0.00000000E+00  0.00000000E+00
  0.00000000E+00  0.00000000E+00  0.00000000E+00
  0.00000000E+00  0.00000000E+00  0.00000000E+00
  0.00000000E+00  0.00000000E+00  0.00000000E+00
  0.00000000E+00  0.00000000E+00  0.00000000E+00
  0.00000000E+00  0.00000000E+00  0.00000000E+00
  0.00000000E+00  0.00000000E+00  0.00000000E+00
  0.00000000E+00  0.00000000E+00  0.00000000E+00
  0.00000000E+00  0.00000000E+00  0.00000000E+00
  0.00000000E+00  0.00000000E+00  0.00000000E+00
  0.00000000E+00  0.00000000E+00  0.00000000E+00
  0.00000000E+00  0.00000000E+00  0.00000000E+00
  0.00000000E+00  0.00000000E+00  0.00000000E+00
  0.00000000E+00  0.00000000E+00  0.00000000E+00
  0.00000000E+00  0.00000000E+00  0.00000000E+00
  0.00000000E+00  0.00000000E+00  0.00000000E+00
  0.00000000E+00  0.00000000E+00  0.00000000E+00
  0.00000000E+00  0.00000000E+00  0.00000000E+00
  0.00000000E+00  0.00000000E+00  0.00000000E+00
  0.00000000E+00  0.00000000E+00  0.00000000E+00
  0.00000000E+00  0.00000000E+00  0.00000000E+00
  0.00000000E+00  0.00000000E+00  0.00000000E+00
  0.00000000E+00  0.00000000E+00  0.00000000E+00
  0.00000000E+00  0.00000000E+00  0.00000000E+00
  0.00000000E+00  0.00000000E+00  0.00000000E+00
  0.00000000E+00  0.00000000E+00  0.00000000E+00
  0.00000000E+00  0.00000000E+00  0.00000000E+00
  0.00000000E+00  0.00000000E+00  0.00000000E+00
  0.00000000E+00  0.00000000E+00  0.00000000E+00
  0.00000000E+00  0.00000000E+00  0.00000000E+00
  0.00000000E+00  0.00000000E+00  0.00000000E+00
  0.00000000E+00  0.00000000E+00  0.00000000E+00
  0.00000000E+00  0.00000000E+00  0.00000000E+00
  0.00000000E+00  0.00000000E+00  0.00000000E+00
  0.00000000E+00  0.00000000E+00  0.00000000E+00
  0.00000000E+00  0.00000000E+00  0.00000000E+00
  0.00000000E+00  0.00000000E+00  0.00000000E+00
  0.00000000E+00  0.00000000E+00  0.00000000E+00
  0.00000000E+00  0.00000000E+00  0.00000000E+00
  0.00000000E+00  0.00000000E+00  0.00000000E+00
  0.00000000E+00  0.00000000E+00  0.00000000E+00
  0.00000000E+00  0.00000000E+00  0.00000000E+00
  0.00000000E+00  0.00000000E+00  0.00000000E+00
  0.00000000E+00  0.00000000E+00  0.00000000E+00
  0.00000000E+00  0.00000000E+00  0.00000000E+00
  0.00000000E+00  0.00000000E+00  0.00000000E+00
  0.00000000E+00  0.00000000E+00  0.00000000E+00
  0.00000000E+00  0.00000000E+00  0.00000000E+00
  0.00000000E+00  0.00000000E+00  0.00000000E+00
  0.00000000E+00  0.00000000E+00  0.00000000E+00
  0.00000000E+00  0.00000000E+00  0.00000000E+00
