 C  N  C  N Ru                          
   1.00000000000000     
    17.0990259999999985   -9.8721239999999995    0.0000000000000000
     0.0000000000000000   19.7442530000000005    0.0000000000000000
     0.0000000000000000    0.0000000000000000   20.0000000000000000
   C    N    Ru
   124     2     1
Direct
  0.0208957815794643  0.9791419549915886  0.0000000000000000
  0.1036454883346972  0.0197782242494639  0.0000000000000000
  0.1456007304258957  0.9782929436871953  0.0000000000000000
  0.2286973171597833  0.0194477842188245  0.0000000000000000
  0.2707756360871690  0.9781282736865241  0.0000000000000000
  0.3539652431707365  0.0197738099012163  0.0000000000000000
  0.3959172078301113  0.9784718874209500  0.0000000000000000
  0.4791422408494091  0.0208007562027453  0.0000000000000000
  0.5209683395555135  0.9794177300975957  0.0000000000000000
  0.6041668733397210  0.0216583552719582  0.0000000000000000
  0.6460242261645958  0.9801306877764402  0.0000000000000000
  0.7292110331716751  0.0219097845042029  0.0000000000000000
  0.7711602274865010  0.9804168688831869  0.0000000000000000
  0.8543187436489051  0.0217224471736152  0.0000000000000000
  0.8963133760112866  0.9802589886463787  0.0000000000000000
  0.9790963006462894  0.0209409348775359  0.0000000000000000
  0.0197784237708913  0.1037235622780279  0.0000000000000000
  0.1025484476224904  0.1443149745035308  0.0000000000000000
  0.1442016155771854  0.1024954814724756  0.0000000000000000
  0.2269238979539779  0.1431101570803179  0.0000000000000000
  0.2695482617492573  0.1022035544134327  0.0000000000000000
  0.3527770094802926  0.1434958886435650  0.0000000000000000
  0.3952088324273780  0.1028906785609063  0.0000000000000000
  0.4785233964082854  0.1455124275329270  0.0000000000000000
  0.5204832525167753  0.1042843220057892  0.0000000000000000
  0.6036763536934381  0.1468189161189515  0.0000000000000000
  0.6454635956957463  0.1050979047631940  0.0000000000000000
  0.7286546850492368  0.1467625256828894  0.0000000000000000
  0.7704315868329451  0.1050891587903362  0.0000000000000000
  0.8535915060494310  0.1464589065138608  0.0000000000000000
  0.8953239198330921  0.1047082680222052  0.0000000000000000
  0.9783067871733981  0.1457079810046477  0.0000000000000000
  0.0196117683271583  0.2288646482800123  0.0000000000000000
  0.1024510806443408  0.2697402728879864  0.0000000000000000
  0.1433152437108250  0.2270925718102558  0.0000000000000000
  0.2257306435742059  0.2672927410800304  0.0000000000000000
  0.2670933790423078  0.2254302651133902  0.0000000000000000
  0.3499211689648919  0.2654949416734641  0.0000000000000000
  0.3936122968402575  0.2261445671866306  0.0000000000000000
  0.4769373401172119  0.2692676439465927  0.0000000000000000
  0.5197452846399089  0.2289345116281718  0.0000000000000000
  0.6029585284174553  0.2722771252406220  0.0000000000000000
  0.6448988241743416  0.2305161774045348  0.0000000000000000
  0.7282289907555697  0.2718213780066842  0.0000000000000000
  0.7699748975363677  0.2300856917627963  0.0000000000000000
  0.8533034177376035  0.2714088090667055  0.0000000000000000
  0.8949652487842650  0.2296190160364157  0.0000000000000000
  0.9781323380655063  0.2708239552344439  0.0000000000000000
  0.0199029093674678  0.3540055092531056  0.0000000000000000
  0.1031265715435378  0.3951942259301917  0.0000000000000000
  0.1443158027430156  0.3530588024147046  0.0000000000000000
  0.2272162321159237  0.3939089780039806  0.0000000000000000
  0.2669992440572625  0.3501594553428431  0.0000000000000000
  0.3488930527649862  0.3901249341732496  0.0000000000000000
  0.3905166405750317  0.3467860398407085  0.0000000000000000
  0.5158965310498472  0.3526012353089318  0.0000000000000000
  0.6012984233025379  0.3987216539365204  0.0000000000000000
  0.6434869389837573  0.3565336208394646  0.0000000000000000
  0.7277469987491617  0.3970633471347786  0.0000000000000000
  0.7695359856953283  0.3551500244831421  0.0000000000000000
  0.8532330541146168  0.3963786686873599  0.0000000000000000
  0.8949630954073846  0.3546004755282134  0.0000000000000000
  0.9783964130215065  0.3958870303666250  0.0000000000000000
  0.0206342054485810  0.4790844255407546  0.0000000000000000
  0.1040926593047471  0.5204280127577293  0.0000000000000000
  0.1454029825090320  0.4785011137709180  0.0000000000000000
  0.2287510360585809  0.5197385845320763  0.0000000000000000
  0.2698441383770100  0.4775121304048176  0.0000000000000000
  0.3531667916041782  0.5181137659409492  0.0000000000000000
  0.6473955916866154  0.4841276631493019  0.0000000000000000
  0.7307393824951063  0.5230803147832099  0.0000000000000000
  0.7710786302751255  0.4802764530290268  0.0000000000000000
  0.8545117315601055  0.5215008256609125  0.0000000000000000
  0.8957538421265325  0.4795623936581265  0.0000000000000000
  0.9792443650336905  0.5209069627203553  0.0000000000000000
  0.0215785998405065  0.6041234471348323  0.0000000000000000
  0.1049176165079203  0.6454752675998778  0.0000000000000000
  0.1464484558922657  0.6036532994853977  0.0000000000000000
  0.2299651478404906  0.6450010928827108  0.0000000000000000
  0.2715015288338936  0.6030907043516686  0.0000000000000000
  0.3554802565148087  0.6445319951170350  0.0000000000000000
  0.3972311176772969  0.6027914013701395  0.0000000000000000
  0.4819042190817062  0.6468213384877535  0.0000000000000000
  0.6099390367707680  0.6511543942916860  0.0000000000000000
  0.6532669649787290  0.6095403955469599  0.0000000000000000
  0.7345556012296346  0.6501189526730172  0.0000000000000000
  0.7738881625255335  0.6064077811816568  0.0000000000000000
  0.8565358711193863  0.6472376688929968  0.0000000000000000
  0.8971459134008339  0.6048112755792421  0.0000000000000000
  0.9802635627734271  0.6460590539200282  0.0000000000000000
  0.0219040342492289  0.7292462928574923  0.0000000000000000
  0.1050504949908640  0.7704786419821896  0.0000000000000000
  0.1466377186001200  0.7286913515575045  0.0000000000000000
  0.2299387912923175  0.7701090106192837  0.0000000000000000
  0.2716353191826674  0.7284072162532890  0.0000000000000000
  0.3550340453537764  0.7700750709667588  0.0000000000000000
  0.3969220924093416  0.7285088551557833  0.0000000000000000
  0.4802804913240262  0.7712607069527203  0.0000000000000000
  0.5224943549028324  0.7301551676533496  0.0000000000000000
  0.6061033111781345  0.7728050037454168  0.0000000000000000
  0.6498900533845143  0.7330505786142903  0.0000000000000000
  0.7327606112738467  0.7743258994924161  0.0000000000000000
  0.7746205326297032  0.7329465237520124  0.0000000000000000
  0.8569415615431872  0.7731112132685154  0.0000000000000000
  0.8978273655418415  0.7304664446000730  0.0000000000000000
  0.9805797582525548  0.7713197622767898  0.0000000000000000
  0.0217384775318847  0.8544246956572400  0.0000000000000000
  0.1046601730516142  0.8953703055426031  0.0000000000000000
  0.1464024898921595  0.8536313679516153  0.0000000000000000
  0.2295540217457334  0.8949888945463690  0.0000000000000000
  0.2713525199441346  0.8534160944263329  0.0000000000000000
  0.3545649751043684  0.8951354944759403  0.0000000000000000
  0.3963837249792538  0.8535975563693821  0.0000000000000000
  0.4796123684046909  0.8959501334283846  0.0000000000000000
  0.5215228061041290  0.8546240521722795  0.0000000000000000
  0.6048236212847633  0.8969023949715597  0.0000000000000000
  0.6469538778212680  0.8557030803933930  0.0000000000000000
  0.7302792596690074  0.8975738091830757  0.0000000000000000
  0.7729474986639330  0.8567350562207802  0.0000000000000000
  0.8557235752006677  0.8974931344150228  0.0000000000000000
  0.8975477454089005  0.8558393794075176  0.0000000000000000
  0.9802618740325113  0.8963902717739226  0.0000000000000000
  0.5268300817098662  0.6090912272791198  0.0000000000000000
  0.3909073396362250  0.4732171630604955  0.0000000000000000
  0.4704947613647371  0.3866040724700427  0.0000000000000000
  0.6134103170041282  0.5295550757493230  0.0000000000000000
  0.4992408617515597  0.5007848297153983  0.0000000000000000
 
  0.00000000E+00  0.00000000E+00  0.00000000E+00
  0.00000000E+00  0.00000000E+00  0.00000000E+00
  0.00000000E+00  0.00000000E+00  0.00000000E+00
  0.00000000E+00  0.00000000E+00  0.00000000E+00
  0.00000000E+00  0.00000000E+00  0.00000000E+00
  0.00000000E+00  0.00000000E+00  0.00000000E+00
  0.00000000E+00  0.00000000E+00  0.00000000E+00
  0.00000000E+00  0.00000000E+00  0.00000000E+00
  0.00000000E+00  0.00000000E+00  0.00000000E+00
  0.00000000E+00  0.00000000E+00  0.00000000E+00
  0.00000000E+00  0.00000000E+00  0.00000000E+00
  0.00000000E+00  0.00000000E+00  0.00000000E+00
  0.00000000E+00  0.00000000E+00  0.00000000E+00
  0.00000000E+00  0.00000000E+00  0.00000000E+00
  0.00000000E+00  0.00000000E+00  0.00000000E+00
  0.00000000E+00  0.00000000E+00  0.00000000E+00
  0.00000000E+00  0.00000000E+00  0.00000000E+00
  0.00000000E+00  0.00000000E+00  0.00000000E+00
  0.00000000E+00  0.00000000E+00  0.00000000E+00
  0.00000000E+00  0.00000000E+00  0.00000000E+00
  0.00000000E+00  0.00000000E+00  0.00000000E+00
  0.00000000E+00  0.00000000E+00  0.00000000E+00
  0.00000000E+00  0.00000000E+00  0.00000000E+00
  0.00000000E+00  0.00000000E+00  0.00000000E+00
  0.00000000E+00  0.00000000E+00  0.00000000E+00
  0.00000000E+00  0.00000000E+00  0.00000000E+00
  0.00000000E+00  0.00000000E+00  0.00000000E+00
  0.00000000E+00  0.00000000E+00  0.00000000E+00
  0.00000000E+00  0.00000000E+00  0.00000000E+00
  0.00000000E+00  0.00000000E+00  0.00000000E+00
  0.00000000E+00  0.00000000E+00  0.00000000E+00
  0.00000000E+00  0.00000000E+00  0.00000000E+00
  0.00000000E+00  0.00000000E+00  0.00000000E+00
  0.00000000E+00  0.00000000E+00  0.00000000E+00
  0.00000000E+00  0.00000000E+00  0.00000000E+00
  0.00000000E+00  0.00000000E+00  0.00000000E+00
  0.00000000E+00  0.00000000E+00  0.00000000E+00
  0.00000000E+00  0.00000000E+00  0.00000000E+00
  0.00000000E+00  0.00000000E+00  0.00000000E+00
  0.00000000E+00  0.00000000E+00  0.00000000E+00
  0.00000000E+00  0.00000000E+00  0.00000000E+00
  0.00000000E+00  0.00000000E+00  0.00000000E+00
  0.00000000E+00  0.00000000E+00  0.00000000E+00
  0.00000000E+00  0.00000000E+00  0.00000000E+00
  0.00000000E+00  0.00000000E+00  0.00000000E+00
  0.00000000E+00  0.00000000E+00  0.00000000E+00
  0.00000000E+00  0.00000000E+00  0.00000000E+00
  0.00000000E+00  0.00000000E+00  0.00000000E+00
  0.00000000E+00  0.00000000E+00  0.00000000E+00
  0.00000000E+00  0.00000000E+00  0.00000000E+00
  0.00000000E+00  0.00000000E+00  0.00000000E+00
  0.00000000E+00  0.00000000E+00  0.00000000E+00
  0.00000000E+00  0.00000000E+00  0.00000000E+00
  0.00000000E+00  0.00000000E+00  0.00000000E+00
  0.00000000E+00  0.00000000E+00  0.00000000E+00
  0.00000000E+00  0.00000000E+00  0.00000000E+00
  0.00000000E+00  0.00000000E+00  0.00000000E+00
  0.00000000E+00  0.00000000E+00  0.00000000E+00
  0.00000000E+00  0.00000000E+00  0.00000000E+00
  0.00000000E+00  0.00000000E+00  0.00000000E+00
  0.00000000E+00  0.00000000E+00  0.00000000E+00
  0.00000000E+00  0.00000000E+00  0.00000000E+00
  0.00000000E+00  0.00000000E+00  0.00000000E+00
  0.00000000E+00  0.00000000E+00  0.00000000E+00
  0.00000000E+00  0.00000000E+00  0.00000000E+00
  0.00000000E+00  0.00000000E+00  0.00000000E+00
  0.00000000E+00  0.00000000E+00  0.00000000E+00
  0.00000000E+00  0.00000000E+00  0.00000000E+00
  0.00000000E+00  0.00000000E+00  0.00000000E+00
  0.00000000E+00  0.00000000E+00  0.00000000E+00
  0.00000000E+00  0.00000000E+00  0.00000000E+00
  0.00000000E+00  0.00000000E+00  0.00000000E+00
  0.00000000E+00  0.00000000E+00  0.00000000E+00
  0.00000000E+00  0.00000000E+00  0.00000000E+00
  0.00000000E+00  0.00000000E+00  0.00000000E+00
  0.00000000E+00  0.00000000E+00  0.00000000E+00
  0.00000000E+00  0.00000000E+00  0.00000000E+00
  0.00000000E+00  0.00000000E+00  0.00000000E+00
  0.00000000E+00  0.00000000E+00  0.00000000E+00
  0.00000000E+00  0.00000000E+00  0.00000000E+00
  0.00000000E+00  0.00000000E+00  0.00000000E+00
  0.00000000E+00  0.00000000E+00  0.00000000E+00
  0.00000000E+00  0.00000000E+00  0.00000000E+00
  0.00000000E+00  0.00000000E+00  0.00000000E+00
  0.00000000E+00  0.00000000E+00  0.00000000E+00
  0.00000000E+00  0.00000000E+00  0.00000000E+00
  0.00000000E+00  0.00000000E+00  0.00000000E+00
  0.00000000E+00  0.00000000E+00  0.00000000E+00
  0.00000000E+00  0.00000000E+00  0.00000000E+00
  0.00000000E+00  0.00000000E+00  0.00000000E+00
  0.00000000E+00  0.00000000E+00  0.00000000E+00
  0.00000000E+00  0.00000000E+00  0.00000000E+00
  0.00000000E+00  0.00000000E+00  0.00000000E+00
  0.00000000E+00  0.00000000E+00  0.00000000E+00
  0.00000000E+00  0.00000000E+00  0.00000000E+00
  0.00000000E+00  0.00000000E+00  0.00000000E+00
  0.00000000E+00  0.00000000E+00  0.00000000E+00
  0.00000000E+00  0.00000000E+00  0.00000000E+00
  0.00000000E+00  0.00000000E+00  0.00000000E+00
  0.00000000E+00  0.00000000E+00  0.00000000E+00
  0.00000000E+00  0.00000000E+00  0.00000000E+00
  0.00000000E+00  0.00000000E+00  0.00000000E+00
  0.00000000E+00  0.00000000E+00  0.00000000E+00
  0.00000000E+00  0.00000000E+00  0.00000000E+00
  0.00000000E+00  0.00000000E+00  0.00000000E+00
  0.00000000E+00  0.00000000E+00  0.00000000E+00
  0.00000000E+00  0.00000000E+00  0.00000000E+00
  0.00000000E+00  0.00000000E+00  0.00000000E+00
  0.00000000E+00  0.00000000E+00  0.00000000E+00
  0.00000000E+00  0.00000000E+00  0.00000000E+00
  0.00000000E+00  0.00000000E+00  0.00000000E+00
  0.00000000E+00  0.00000000E+00  0.00000000E+00
  0.00000000E+00  0.00000000E+00  0.00000000E+00
  0.00000000E+00  0.00000000E+00  0.00000000E+00
  0.00000000E+00  0.00000000E+00  0.00000000E+00
  0.00000000E+00  0.00000000E+00  0.00000000E+00
  0.00000000E+00  0.00000000E+00  0.00000000E+00
  0.00000000E+00  0.00000000E+00  0.00000000E+00
  0.00000000E+00  0.00000000E+00  0.00000000E+00
  0.00000000E+00  0.00000000E+00  0.00000000E+00
  0.00000000E+00  0.00000000E+00  0.00000000E+00
  0.00000000E+00  0.00000000E+00  0.00000000E+00
  0.00000000E+00  0.00000000E+00  0.00000000E+00
  0.00000000E+00  0.00000000E+00  0.00000000E+00
  0.00000000E+00  0.00000000E+00  0.00000000E+00
  0.00000000E+00  0.00000000E+00  0.00000000E+00
  0.00000000E+00  0.00000000E+00  0.00000000E+00
