RuN3                                    
   1.00000000000000     
    17.0990259999999985   -9.8721239999999995    0.0000000000000000
     0.0000000000000000   19.7442530000000005    0.0000000000000000
     0.0000000000000000    0.0000000000000000   20.0000000000000000
   C    N    Ru
   123     3     1
Selective dynamics
Direct
  0.0210529543664420  0.9792774802249024  0.0000000000000000   T   T   T
  0.1037556863772878  0.0198202471141222  0.0000000000000000   T   T   T
  0.1456919749788668  0.9783085863354949  0.0000000000000000   T   T   T
  0.2287787409965357  0.0194935005311110  0.0000000000000000   T   T   T
  0.2708355009642803  0.9780713944015215  0.0000000000000000   T   T   T
  0.3539894858946671  0.0197813891228147  0.0000000000000000   T   T   T
  0.3959002166834780  0.9783387868541342  0.0000000000000000   T   T   T
  0.4790956480294453  0.0207406072454198  0.0000000000000000   T   T   T
  0.5208876407578081  0.9792543723171174  0.0000000000000000   T   T   T
  0.6040737581408783  0.0216444216870674  0.0000000000000000   T   T   T
  0.6459770067997445  0.9801116609104986  0.0000000000000000   T   T   T
  0.7291677529309104  0.0219731676524528  0.0000000000000000   T   T   T
  0.7712009041830135  0.9805538696096662  0.0000000000000000   T   T   T
  0.8543837149721447  0.0218710773425514  0.0000000000000000   T   T   T
  0.8965087165714932  0.9805200994950636  0.0000000000000000   T   T   T
  0.9792476473163354  0.0211085180284110  0.0000000000000000   T   T   T
  0.0197882430758564  0.1038317580058032  0.0000000000000000   T   T   T
  0.1025554983792769  0.1443762742310807  0.0000000000000000   T   T   T
  0.1442414822241468  0.1025481788418570  0.0000000000000000   T   T   T
  0.2269251199079419  0.1431601335868985  0.0000000000000000   T   T   T
  0.2694988872333317  0.1022296656323683  0.0000000000000000   T   T   T
  0.3527112407320836  0.1438101437090748  0.0000000000000000   T   T   T
  0.3951115183909098  0.1030458520899840  0.0000000000000000   T   T   T
  0.4783740249671330  0.1456689433789476  0.0000000000000000   T   T   T
  0.5203232724160635  0.1043032582377788  0.0000000000000000   T   T   T
  0.6034998729775797  0.1469253532708235  0.0000000000000000   T   T   T
  0.6452926367535731  0.1051451419901146  0.0000000000000000   T   T   T
  0.7285089834462645  0.1468447488644211  0.0000000000000000   T   T   T
  0.7703127519333718  0.1051564631653874  0.0000000000000000   T   T   T
  0.8534734287258892  0.1465189691505875  0.0000000000000000   T   T   T
  0.8952567803549986  0.1047902827325246  0.0000000000000000   T   T   T
  0.9782184167719761  0.1457133000025471  0.0000000000000000   T   T   T
  0.0194377245088283  0.2288067774459472  0.0000000000000000   T   T   T
  0.1022207359760011  0.2695708875003700  0.0000000000000000   T   T   T
  0.1432308263632517  0.2271082217998905  0.0000000000000000   T   T   T
  0.2256456070808077  0.2672221083995754  0.0000000000000000   T   T   T
  0.2669567378311707  0.2255208299629440  0.0000000000000000   T   T   T
  0.3496914818565698  0.2662316953655561  0.0000000000000000   T   T   T
  0.3933724224074714  0.2265544144580833  0.0000000000000000   T   T   T
  0.4766550735999984  0.2695626521711931  0.0000000000000000   T   T   T
  0.5194546801528334  0.2291492665417508  0.0000000000000000   T   T   T
  0.6027269405168170  0.2725531481273928  0.0000000000000000   T   T   T
  0.6446582146616726  0.2307079053512380  0.0000000000000000   T   T   T
  0.7279853491441043  0.2719796603821013  0.0000000000000000   T   T   T
  0.7697529876213529  0.2301821363026268  0.0000000000000000   T   T   T
  0.8530943127732079  0.2714610289630865  0.0000000000000000   T   T   T
  0.8947706574752080  0.2296423719514505  0.0000000000000000   T   T   T
  0.9779767920140223  0.2708219627269384  0.0000000000000000   T   T   T
  0.0197176611162388  0.3539847061327070  0.0000000000000000   T   T   T
  0.1029942131914847  0.3950843180561643  0.0000000000000000   T   T   T
  0.1439023553338338  0.3527780964653155  0.0000000000000000   T   T   T
  0.2266946380004130  0.3934664717750761  0.0000000000000000   T   T   T
  0.2666535078789550  0.3501179111710808  0.0000000000000000   T   T   T
  0.3481974997373137  0.3906075627353828  0.0000000000000000   T   T   T
  0.3904078379489982  0.3476968843944578  0.0000000000000000   T   T   T
  0.5155294091999849  0.3530118474990035  0.0000000000000000   T   T   T
  0.6008486164156382  0.3991093249047448  0.0000000000000000   T   T   T
  0.6431463104228887  0.3568045564464002  0.0000000000000000   T   T   T
  0.7273424639880730  0.3972380385616909  0.0000000000000000   T   T   T
  0.7692192679756541  0.3552892878661502  0.0000000000000000   T   T   T
  0.8529611391841820  0.3964508686898335  0.0000000000000000   T   T   T
  0.8947426105205895  0.3546562895850531  0.0000000000000000   T   T   T
  0.9782242619269088  0.3958787556421315  0.0000000000000000   T   T   T
  0.0206136558263453  0.4790368322984133  0.0000000000000000   T   T   T
  0.1042168035299955  0.5202723348281904  0.0000000000000000   T   T   T
  0.1456476660450836  0.4783355159365530  0.0000000000000000   T   T   T
  0.2291787710273903  0.5194306595061448  0.0000000000000000   T   T   T
  0.2699917419549550  0.4767422540479503  0.0000000000000000   T   T   T
  0.3534221123896877  0.5160361015129710  0.0000000000000000   T   T   T
  0.6463489613979058  0.4843802541748312  0.0000000000000000   T   T   T
  0.7300113187673094  0.5233138390329222  0.0000000000000000   T   T   T
  0.7705473269866452  0.4804984761472628  0.0000000000000000   T   T   T
  0.8541659733394442  0.5215845158813185  0.0000000000000000   T   T   T
  0.8955273821238053  0.4796269686324070  0.0000000000000000   T   T   T
  0.9791407389265104  0.5208608824249222  0.0000000000000000   T   T   T
  0.0216318455852033  0.6040635723091735  0.0000000000000000   T   T   T
  0.1050450191305980  0.6453222455907742  0.0000000000000000   T   T   T
  0.1466696189662883  0.6034702626409764  0.0000000000000000   T   T   T
  0.2302806793793667  0.6446585685541084  0.0000000000000000   T   T   T
  0.2719027278341581  0.6026597553550128  0.0000000000000000   T   T   T
  0.3558453124630565  0.6432694727998285  0.0000000000000000   T   T   T
  0.3979908393791530  0.6013495536156995  0.0000000000000000   T   T   T
  0.4825457848668477  0.6461357201586423  0.0000000000000000   T   T   T
  0.5283120901671918  0.6091688481551194  0.0000000000000000   T   T   T
  0.6111200681802567  0.6522217940854981  0.0000000000000000   T   T   T
  0.6537006980208607  0.6105687984259707  0.0000000000000000   T   T   T
  0.7347256900125606  0.6504716787337523  0.0000000000000000   T   T   T
  0.7738613247683139  0.6066243436082003  0.0000000000000000   T   T   T
  0.8565090371755413  0.6473228793369896  0.0000000000000000   T   T   T
  0.8970876087977711  0.6048645621630822  0.0000000000000000   T   T   T
  0.9802991079093639  0.6460267904786601  0.0000000000000000   T   T   T
  0.0220481815559812  0.7292222939802933  0.0000000000000000   T   T   T
  0.1052102656791600  0.7704037690911596  0.0000000000000000   T   T   T
  0.1467888559390373  0.7285329613530664  0.0000000000000000   T   T   T
  0.2301268407262573  0.7698406408034133  0.0000000000000000   T   T   T
  0.2718258038711273  0.7280528714160952  0.0000000000000000   T   T   T
  0.3551918099016410  0.7694372336718578  0.0000000000000000   T   T   T
  0.3970651177635768  0.7275937107230341  0.0000000000000000   T   T   T
  0.4804123123687067  0.7707498289936887  0.0000000000000000   T   T   T
  0.5227452670728212  0.7297133301185684  0.0000000000000000   T   T   T
  0.6064264929862524  0.7729413531920135  0.0000000000000000   T   T   T
  0.6506709639152520  0.7337484877094159  0.0000000000000000   T   T   T
  0.7334272609070522  0.7749054511775055  0.0000000000000000   T   T   T
  0.7750309087476351  0.7333819183096543  0.0000000000000000   T   T   T
  0.8572808759151455  0.7733881589511887  0.0000000000000000   T   T   T
  0.8980515089933903  0.7306265072504535  0.0000000000000000   T   T   T
  0.9807532504165923  0.7713673948341936  0.0000000000000000   T   T   T
  0.0219419528088131  0.8545049024423541  0.0000000000000000   T   T   T
  0.1048308133295277  0.8953782081774218  0.0000000000000000   T   T   T
  0.1465386245921823  0.8535684641066262  0.0000000000000000   T   T   T
  0.2296733795710120  0.8948876328569866  0.0000000000000000   T   T   T
  0.2714594244548626  0.8532062717359431  0.0000000000000000   T   T   T
  0.3546580993384300  0.8948827391113087  0.0000000000000000   T   T   T
  0.3964302026927536  0.8531267324544043  0.0000000000000000   T   T   T
  0.4796296528316185  0.8956582679361551  0.0000000000000000   T   T   T
  0.5215414402731979  0.8542898242647144  0.0000000000000000   T   T   T
  0.6048586001161099  0.8968433833727198  0.0000000000000000   T   T   T
  0.6471038459164308  0.8557854511953371  0.0000000000000000   T   T   T
  0.7304825119800351  0.8977872257843323  0.0000000000000000   T   T   T
  0.7733863066962557  0.8571780307267383  0.0000000000000000   T   T   T
  0.8560783703341526  0.8978186016675642  0.0000000000000000   T   T   T
  0.8978451833119603  0.8560918837518238  0.0000000000000000   T   T   T
  0.9805303833614307  0.8965579015951679  0.0000000000000000   T   T   T
  0.4703346646364787  0.3872599873767140  0.0000000000000000   T   T   T
  0.3892313616046520  0.4713031443380316  0.0000000000000000   T   T   T
  0.6118978476169781  0.5300533375268149  0.0000000000000000   T   T   T
  0.5001188677438279  0.5009979844298454  0.0000000000000000   T   T   T
 
  0.00000000E+00  0.00000000E+00  0.00000000E+00
  0.00000000E+00  0.00000000E+00  0.00000000E+00
  0.00000000E+00  0.00000000E+00  0.00000000E+00
  0.00000000E+00  0.00000000E+00  0.00000000E+00
  0.00000000E+00  0.00000000E+00  0.00000000E+00
  0.00000000E+00  0.00000000E+00  0.00000000E+00
  0.00000000E+00  0.00000000E+00  0.00000000E+00
  0.00000000E+00  0.00000000E+00  0.00000000E+00
  0.00000000E+00  0.00000000E+00  0.00000000E+00
  0.00000000E+00  0.00000000E+00  0.00000000E+00
  0.00000000E+00  0.00000000E+00  0.00000000E+00
  0.00000000E+00  0.00000000E+00  0.00000000E+00
  0.00000000E+00  0.00000000E+00  0.00000000E+00
  0.00000000E+00  0.00000000E+00  0.00000000E+00
  0.00000000E+00  0.00000000E+00  0.00000000E+00
  0.00000000E+00  0.00000000E+00  0.00000000E+00
  0.00000000E+00  0.00000000E+00  0.00000000E+00
  0.00000000E+00  0.00000000E+00  0.00000000E+00
  0.00000000E+00  0.00000000E+00  0.00000000E+00
  0.00000000E+00  0.00000000E+00  0.00000000E+00
  0.00000000E+00  0.00000000E+00  0.00000000E+00
  0.00000000E+00  0.00000000E+00  0.00000000E+00
  0.00000000E+00  0.00000000E+00  0.00000000E+00
  0.00000000E+00  0.00000000E+00  0.00000000E+00
  0.00000000E+00  0.00000000E+00  0.00000000E+00
  0.00000000E+00  0.00000000E+00  0.00000000E+00
  0.00000000E+00  0.00000000E+00  0.00000000E+00
  0.00000000E+00  0.00000000E+00  0.00000000E+00
  0.00000000E+00  0.00000000E+00  0.00000000E+00
  0.00000000E+00  0.00000000E+00  0.00000000E+00
  0.00000000E+00  0.00000000E+00  0.00000000E+00
  0.00000000E+00  0.00000000E+00  0.00000000E+00
  0.00000000E+00  0.00000000E+00  0.00000000E+00
  0.00000000E+00  0.00000000E+00  0.00000000E+00
  0.00000000E+00  0.00000000E+00  0.00000000E+00
  0.00000000E+00  0.00000000E+00  0.00000000E+00
  0.00000000E+00  0.00000000E+00  0.00000000E+00
  0.00000000E+00  0.00000000E+00  0.00000000E+00
  0.00000000E+00  0.00000000E+00  0.00000000E+00
  0.00000000E+00  0.00000000E+00  0.00000000E+00
  0.00000000E+00  0.00000000E+00  0.00000000E+00
  0.00000000E+00  0.00000000E+00  0.00000000E+00
  0.00000000E+00  0.00000000E+00  0.00000000E+00
  0.00000000E+00  0.00000000E+00  0.00000000E+00
  0.00000000E+00  0.00000000E+00  0.00000000E+00
  0.00000000E+00  0.00000000E+00  0.00000000E+00
  0.00000000E+00  0.00000000E+00  0.00000000E+00
  0.00000000E+00  0.00000000E+00  0.00000000E+00
  0.00000000E+00  0.00000000E+00  0.00000000E+00
  0.00000000E+00  0.00000000E+00  0.00000000E+00
  0.00000000E+00  0.00000000E+00  0.00000000E+00
  0.00000000E+00  0.00000000E+00  0.00000000E+00
  0.00000000E+00  0.00000000E+00  0.00000000E+00
  0.00000000E+00  0.00000000E+00  0.00000000E+00
  0.00000000E+00  0.00000000E+00  0.00000000E+00
  0.00000000E+00  0.00000000E+00  0.00000000E+00
  0.00000000E+00  0.00000000E+00  0.00000000E+00
  0.00000000E+00  0.00000000E+00  0.00000000E+00
  0.00000000E+00  0.00000000E+00  0.00000000E+00
  0.00000000E+00  0.00000000E+00  0.00000000E+00
  0.00000000E+00  0.00000000E+00  0.00000000E+00
  0.00000000E+00  0.00000000E+00  0.00000000E+00
  0.00000000E+00  0.00000000E+00  0.00000000E+00
  0.00000000E+00  0.00000000E+00  0.00000000E+00
  0.00000000E+00  0.00000000E+00  0.00000000E+00
  0.00000000E+00  0.00000000E+00  0.00000000E+00
  0.00000000E+00  0.00000000E+00  0.00000000E+00
  0.00000000E+00  0.00000000E+00  0.00000000E+00
  0.00000000E+00  0.00000000E+00  0.00000000E+00
  0.00000000E+00  0.00000000E+00  0.00000000E+00
  0.00000000E+00  0.00000000E+00  0.00000000E+00
  0.00000000E+00  0.00000000E+00  0.00000000E+00
  0.00000000E+00  0.00000000E+00  0.00000000E+00
  0.00000000E+00  0.00000000E+00  0.00000000E+00
  0.00000000E+00  0.00000000E+00  0.00000000E+00
  0.00000000E+00  0.00000000E+00  0.00000000E+00
  0.00000000E+00  0.00000000E+00  0.00000000E+00
  0.00000000E+00  0.00000000E+00  0.00000000E+00
  0.00000000E+00  0.00000000E+00  0.00000000E+00
  0.00000000E+00  0.00000000E+00  0.00000000E+00
  0.00000000E+00  0.00000000E+00  0.00000000E+00
  0.00000000E+00  0.00000000E+00  0.00000000E+00
  0.00000000E+00  0.00000000E+00  0.00000000E+00
  0.00000000E+00  0.00000000E+00  0.00000000E+00
  0.00000000E+00  0.00000000E+00  0.00000000E+00
  0.00000000E+00  0.00000000E+00  0.00000000E+00
  0.00000000E+00  0.00000000E+00  0.00000000E+00
  0.00000000E+00  0.00000000E+00  0.00000000E+00
  0.00000000E+00  0.00000000E+00  0.00000000E+00
  0.00000000E+00  0.00000000E+00  0.00000000E+00
  0.00000000E+00  0.00000000E+00  0.00000000E+00
  0.00000000E+00  0.00000000E+00  0.00000000E+00
  0.00000000E+00  0.00000000E+00  0.00000000E+00
  0.00000000E+00  0.00000000E+00  0.00000000E+00
  0.00000000E+00  0.00000000E+00  0.00000000E+00
  0.00000000E+00  0.00000000E+00  0.00000000E+00
  0.00000000E+00  0.00000000E+00  0.00000000E+00
  0.00000000E+00  0.00000000E+00  0.00000000E+00
  0.00000000E+00  0.00000000E+00  0.00000000E+00
  0.00000000E+00  0.00000000E+00  0.00000000E+00
  0.00000000E+00  0.00000000E+00  0.00000000E+00
  0.00000000E+00  0.00000000E+00  0.00000000E+00
  0.00000000E+00  0.00000000E+00  0.00000000E+00
  0.00000000E+00  0.00000000E+00  0.00000000E+00
  0.00000000E+00  0.00000000E+00  0.00000000E+00
  0.00000000E+00  0.00000000E+00  0.00000000E+00
  0.00000000E+00  0.00000000E+00  0.00000000E+00
  0.00000000E+00  0.00000000E+00  0.00000000E+00
  0.00000000E+00  0.00000000E+00  0.00000000E+00
  0.00000000E+00  0.00000000E+00  0.00000000E+00
  0.00000000E+00  0.00000000E+00  0.00000000E+00
  0.00000000E+00  0.00000000E+00  0.00000000E+00
  0.00000000E+00  0.00000000E+00  0.00000000E+00
  0.00000000E+00  0.00000000E+00  0.00000000E+00
  0.00000000E+00  0.00000000E+00  0.00000000E+00
  0.00000000E+00  0.00000000E+00  0.00000000E+00
  0.00000000E+00  0.00000000E+00  0.00000000E+00
  0.00000000E+00  0.00000000E+00  0.00000000E+00
  0.00000000E+00  0.00000000E+00  0.00000000E+00
  0.00000000E+00  0.00000000E+00  0.00000000E+00
  0.00000000E+00  0.00000000E+00  0.00000000E+00
  0.00000000E+00  0.00000000E+00  0.00000000E+00
  0.00000000E+00  0.00000000E+00  0.00000000E+00
  0.00000000E+00  0.00000000E+00  0.00000000E+00
  0.00000000E+00  0.00000000E+00  0.00000000E+00
  0.00000000E+00  0.00000000E+00  0.00000000E+00
  0.00000000E+00  0.00000000E+00  0.00000000E+00
