RuN4                                    
   1.00000000000000     
    17.0990259999999985   -9.8721239999999995    0.0000000000000000
     0.0000000000000000   19.7442530000000005    0.0000000000000000
     0.0000000000000000    0.0000000000000000   20.0000000000000000
   C    Ru
   126     1
Selective dynamics
Direct
  0.0208932904770369  0.9791417237260770  0.0000000000000000   T   T   T
  0.1036444787920312  0.0198099848283009  0.0000000000000000   T   T   T
  0.1456514991635187  0.9783586279567976  0.0000000000000000   T   T   T
  0.2287665867718910  0.0195650026468889  0.0000000000000000   T   T   T
  0.2707382703863632  0.9781716767000034  0.0000000000000000   T   T   T
  0.3539337862575400  0.0198058804924945  0.0000000000000000   T   T   T
  0.3958359450977226  0.9784938233539920  0.0000000000000000   T   T   T
  0.4790807264715358  0.0206534108934145  0.0000000000000000   T   T   T
  0.5209310125703478  0.9794001043573923  0.0000000000000000   T   T   T
  0.6041753413591763  0.0215595363759976  0.0000000000000000   T   T   T
  0.6460789811353053  0.9802494591075079  0.0000000000000000   T   T   T
  0.7292742157991415  0.0218869153640959  0.0000000000000000   T   T   T
  0.7712441508306320  0.9804908160329524  0.0000000000000000   T   T   T
  0.8543598380597009  0.0216991245853270  0.0000000000000000   T   T   T
  0.8963675669792114  0.9802484129332885  0.0000000000000000   T   T   T
  0.9791183660551311  0.0209160124023825  0.0000000000000000   T   T   T
  0.0197864101029065  0.1036679348725440  0.0000000000000000   T   T   T
  0.1024624462239355  0.1442285257770372  0.0000000000000000   T   T   T
  0.1442063908582366  0.1024858223608068  0.0000000000000000   T   T   T
  0.2269468084183195  0.1431135768653620  0.0000000000000000   T   T   T
  0.2697041457725279  0.1023584057359416  0.0000000000000000   T   T   T
  0.3530550333136359  0.1438436304514891  0.0000000000000000   T   T   T
  0.3952589124257140  0.1028485926668106  0.0000000000000000   T   T   T
  0.4785834287732371  0.1450566571021435  0.0000000000000000   T   T   T
  0.5205443608773790  0.1039489814198676  0.0000000000000000   T   T   T
  0.6037799748171461  0.1462883745213857  0.0000000000000000   T   T   T
  0.6455777395852456  0.1048303421180391  0.0000000000000000   T   T   T
  0.7287811700190080  0.1465381815214317  0.0000000000000000   T   T   T
  0.7705350566181085  0.1049577418538419  0.0000000000000000   T   T   T
  0.8536807891137935  0.1463534542737451  0.0000000000000000   T   T   T
  0.8953864746497966  0.1046474037975076  0.0000000000000000   T   T   T
  0.9783344776003113  0.1456747216357281  0.0000000000000000   T   T   T
  0.0195424911820391  0.2287890274980463  0.0000000000000000   T   T   T
  0.1023360604435172  0.2697260210773270  0.0000000000000000   T   T   T
  0.1430914769355683  0.2269686789807542  0.0000000000000000   T   T   T
  0.2254318313270118  0.2672018075139204  0.0000000000000000   T   T   T
  0.2671794942198843  0.2254538419108857  0.0000000000000000   T   T   T
  0.3500084310785230  0.2658380277081819  0.0000000000000000   T   T   T
  0.3940324544074809  0.2265173696826585  0.0000000000000000   T   T   T
  0.4776702866675747  0.2690478426196762  0.0000000000000000   T   T   T
  0.5199310207497581  0.2282907104169915  0.0000000000000000   T   T   T
  0.6033305407090358  0.2712318699720238  0.0000000000000000   T   T   T
  0.6451959980249689  0.2297481442092133  0.0000000000000000   T   T   T
  0.7285745462125822  0.2714588412117558  0.0000000000000000   T   T   T
  0.7702413445295359  0.2297927335035672  0.0000000000000000   T   T   T
  0.8534962577994603  0.2712530314354533  0.0000000000000000   T   T   T
  0.8950769380518395  0.2294993535091261  0.0000000000000000   T   T   T
  0.9781497658497182  0.2707612194962604  0.0000000000000000   T   T   T
  0.0197858134061913  0.3539559689120240  0.0000000000000000   T   T   T
  0.1028288038368453  0.3952804647448733  0.0000000000000000   T   T   T
  0.1438212637448178  0.3530777525170939  0.0000000000000000   T   T   T
  0.2264963330680201  0.3940555218105535  0.0000000000000000   T   T   T
  0.2658166950726737  0.3500329351283176  0.0000000000000000   T   T   T
  0.3474090184429765  0.3899398025116197  0.0000000000000000   T   T   T
  0.3899176235433950  0.3474308323655956  0.0000000000000000   T   T   T
  0.5182515405695106  0.3523400205925792  0.0000000000000000   T   T   T
  0.6031135040712027  0.3969194635237874  0.0000000000000000   T   T   T
  0.6448496711968491  0.3551857375204531  0.0000000000000000   T   T   T
  0.7288042643473920  0.3967039790229330  0.0000000000000000   T   T   T
  0.7702873505747733  0.3548381795508299  0.0000000000000000   T   T   T
  0.8537470071818705  0.3962544632682756  0.0000000000000000   T   T   T
  0.8952049895238718  0.3544558497222604  0.0000000000000000   T   T   T
  0.9784746643461715  0.3958580890511996  0.0000000000000000   T   T   T
  0.0206341992752956  0.4791027072030222  0.0000000000000000   T   T   T
  0.1039298024006861  0.5205658228021296  0.0000000000000000   T   T   T
  0.1450362089750829  0.4786050366141982  0.0000000000000000   T   T   T
  0.2282706587037093  0.5199544725063165  0.0000000000000000   T   T   T
  0.2690276995996576  0.4776939595306934  0.0000000000000000   T   T   T
  0.3523190532836438  0.5182738825293338  0.0000000000000000   T   T   T
  0.6476949469437077  0.4817819706412343  0.0000000000000000   T   T   T
  0.7309884673115065  0.5223626212174892  0.0000000000000000   T   T   T
  0.7717460177282625  0.4801032087913422  0.0000000000000000   T   T   T
  0.8549801253689485  0.5214514887487283  0.0000000000000000   T   T   T
  0.8960858957403288  0.4794892289518787  0.0000000000000000   T   T   T
  0.9793828682516922  0.5209536994285042  0.0000000000000000   T   T   T
  0.0215410223954121  0.6041979859117959  0.0000000000000000   T   T   T
  0.1048101578597952  0.6456006285766277  0.0000000000000000   T   T   T
  0.1462676242811381  0.6038010226207923  0.0000000000000000   T   T   T
  0.2297261947140257  0.6452186520447192  0.0000000000000000   T   T   T
  0.2712080853992764  0.6033540337567391  0.0000000000000000   T   T   T
  0.3551627198695700  0.6448718891345261  0.0000000000000000   T   T   T
  0.3968974085047789  0.6031361188610644  0.0000000000000000   T   T   T
  0.4817596454625478  0.6477151272710558  0.0000000000000000   T   T   T
  0.6100953401507853  0.6526257035129296  0.0000000000000000   T   T   T
  0.6526063087136227  0.6101179865148884  0.0000000000000000   T   T   T
  0.7341977465682307  0.6500259433034810  0.0000000000000000   T   T   T
  0.7735192474581701  0.6060020353715450  0.0000000000000000   T   T   T
  0.8561926130826085  0.6469790403903292  0.0000000000000000   T   T   T
  0.8971890214378595  0.6047764201327187  0.0000000000000000   T   T   T
  0.9802299434952070  0.6461000102589718  0.0000000000000000   T   T   T
  0.0218651689465519  0.7292965493482808  0.0000000000000000   T   T   T
  0.1049359382394065  0.7705582294964352  0.0000000000000000   T   T   T
  0.1465153799376666  0.7288034832356618  0.0000000000000000   T   T   T
  0.2297698429368565  0.7702638257915708  0.0000000000000000   T   T   T
  0.2714367012132708  0.7285961939336094  0.0000000000000000   T   T   T
  0.3548143535071440  0.7703076190134085  0.0000000000000000   T   T   T
  0.3966796411995459  0.7288263815958482  0.0000000000000000   T   T   T
  0.4800801373950390  0.7717662050765147  0.0000000000000000   T   T   T
  0.5223393670133695  0.7310073730575051  0.0000000000000000   T   T   T
  0.6059787592152226  0.7735381963272235  0.0000000000000000   T   T   T
  0.6500048140796943  0.7342176092656474  0.0000000000000000   T   T   T
  0.7328332793007137  0.7746022821423780  0.0000000000000000   T   T   T
  0.7745820871455447  0.7328550653967456  0.0000000000000000   T   T   T
  0.8569225067768313  0.7730881699364779  0.0000000000000000   T   T   T
  0.8976774870870300  0.7303296119861724  0.0000000000000000   T   T   T
  0.9804697469537337  0.7712666401648595  0.0000000000000000   T   T   T
  0.0216760123486035  0.8543829281213620  0.0000000000000000   T   T   T
  0.1046233595442589  0.8954114122658480  0.0000000000000000   T   T   T
  0.1463297055474528  0.8537040377214978  0.0000000000000000   T   T   T
  0.2294762471249803  0.8951007738864909  0.0000000000000000   T   T   T
  0.2712293601403712  0.8535181370128141  0.0000000000000000   T   T   T
  0.3544332793096915  0.8952242147283511  0.0000000000000000   T   T   T
  0.3962317253111188  0.8537661867196804  0.0000000000000000   T   T   T
  0.4794673161663677  0.8961047096866246  0.0000000000000000   T   T   T
  0.5214293128461160  0.8549985501783319  0.0000000000000000   T   T   T
  0.6047545912641026  0.8972082259416301  0.0000000000000000   T   T   T
  0.6469549018430534  0.8562122463540344  0.0000000000000000   T   T   T
  0.7303068147091433  0.8976971220971660  0.0000000000000000   T   T   T
  0.7730659281087564  0.8569430062026112  0.0000000000000000   T   T   T
  0.8558063084206190  0.8975717828256399  0.0000000000000000   T   T   T
  0.8975504905488999  0.8558293605807353  0.0000000000000000   T   T   T
  0.9802257124614384  0.8963902889961763  0.0000000000000000   T   T   T
  0.4727789401642563  0.3889464211659466  0.0000000000000000   T   T   T
  0.3889261300589410  0.4728011504645966  0.0000000000000000   T   T   T
  0.6110902958276659  0.5272566764570477  0.0000000000000000   T   T   T
  0.5272341785257891  0.6111099225921138  0.0000000000000000   T   T   T
  0.5000089993147628  0.5000292738869899  0.0000000000000000   T   T   T
 
  0.00000000E+00  0.00000000E+00  0.00000000E+00
  0.00000000E+00  0.00000000E+00  0.00000000E+00
  0.00000000E+00  0.00000000E+00  0.00000000E+00
  0.00000000E+00  0.00000000E+00  0.00000000E+00
  0.00000000E+00  0.00000000E+00  0.00000000E+00
  0.00000000E+00  0.00000000E+00  0.00000000E+00
  0.00000000E+00  0.00000000E+00  0.00000000E+00
  0.00000000E+00  0.00000000E+00  0.00000000E+00
  0.00000000E+00  0.00000000E+00  0.00000000E+00
  0.00000000E+00  0.00000000E+00  0.00000000E+00
  0.00000000E+00  0.00000000E+00  0.00000000E+00
  0.00000000E+00  0.00000000E+00  0.00000000E+00
  0.00000000E+00  0.00000000E+00  0.00000000E+00
  0.00000000E+00  0.00000000E+00  0.00000000E+00
  0.00000000E+00  0.00000000E+00  0.00000000E+00
  0.00000000E+00  0.00000000E+00  0.00000000E+00
  0.00000000E+00  0.00000000E+00  0.00000000E+00
  0.00000000E+00  0.00000000E+00  0.00000000E+00
  0.00000000E+00  0.00000000E+00  0.00000000E+00
  0.00000000E+00  0.00000000E+00  0.00000000E+00
  0.00000000E+00  0.00000000E+00  0.00000000E+00
  0.00000000E+00  0.00000000E+00  0.00000000E+00
  0.00000000E+00  0.00000000E+00  0.00000000E+00
  0.00000000E+00  0.00000000E+00  0.00000000E+00
  0.00000000E+00  0.00000000E+00  0.00000000E+00
  0.00000000E+00  0.00000000E+00  0.00000000E+00
  0.00000000E+00  0.00000000E+00  0.00000000E+00
  0.00000000E+00  0.00000000E+00  0.00000000E+00
  0.00000000E+00  0.00000000E+00  0.00000000E+00
  0.00000000E+00  0.00000000E+00  0.00000000E+00
  0.00000000E+00  0.00000000E+00  0.00000000E+00
  0.00000000E+00  0.00000000E+00  0.00000000E+00
  0.00000000E+00  0.00000000E+00  0.00000000E+00
  0.00000000E+00  0.00000000E+00  0.00000000E+00
  0.00000000E+00  0.00000000E+00  0.00000000E+00
  0.00000000E+00  0.00000000E+00  0.00000000E+00
  0.00000000E+00  0.00000000E+00  0.00000000E+00
  0.00000000E+00  0.00000000E+00  0.00000000E+00
  0.00000000E+00  0.00000000E+00  0.00000000E+00
  0.00000000E+00  0.00000000E+00  0.00000000E+00
  0.00000000E+00  0.00000000E+00  0.00000000E+00
  0.00000000E+00  0.00000000E+00  0.00000000E+00
  0.00000000E+00  0.00000000E+00  0.00000000E+00
  0.00000000E+00  0.00000000E+00  0.00000000E+00
  0.00000000E+00  0.00000000E+00  0.00000000E+00
  0.00000000E+00  0.00000000E+00  0.00000000E+00
  0.00000000E+00  0.00000000E+00  0.00000000E+00
  0.00000000E+00  0.00000000E+00  0.00000000E+00
  0.00000000E+00  0.00000000E+00  0.00000000E+00
  0.00000000E+00  0.00000000E+00  0.00000000E+00
  0.00000000E+00  0.00000000E+00  0.00000000E+00
  0.00000000E+00  0.00000000E+00  0.00000000E+00
  0.00000000E+00  0.00000000E+00  0.00000000E+00
  0.00000000E+00  0.00000000E+00  0.00000000E+00
  0.00000000E+00  0.00000000E+00  0.00000000E+00
  0.00000000E+00  0.00000000E+00  0.00000000E+00
  0.00000000E+00  0.00000000E+00  0.00000000E+00
  0.00000000E+00  0.00000000E+00  0.00000000E+00
  0.00000000E+00  0.00000000E+00  0.00000000E+00
  0.00000000E+00  0.00000000E+00  0.00000000E+00
  0.00000000E+00  0.00000000E+00  0.00000000E+00
  0.00000000E+00  0.00000000E+00  0.00000000E+00
  0.00000000E+00  0.00000000E+00  0.00000000E+00
  0.00000000E+00  0.00000000E+00  0.00000000E+00
  0.00000000E+00  0.00000000E+00  0.00000000E+00
  0.00000000E+00  0.00000000E+00  0.00000000E+00
  0.00000000E+00  0.00000000E+00  0.00000000E+00
  0.00000000E+00  0.00000000E+00  0.00000000E+00
  0.00000000E+00  0.00000000E+00  0.00000000E+00
  0.00000000E+00  0.00000000E+00  0.00000000E+00
  0.00000000E+00  0.00000000E+00  0.00000000E+00
  0.00000000E+00  0.00000000E+00  0.00000000E+00
  0.00000000E+00  0.00000000E+00  0.00000000E+00
  0.00000000E+00  0.00000000E+00  0.00000000E+00
  0.00000000E+00  0.00000000E+00  0.00000000E+00
  0.00000000E+00  0.00000000E+00  0.00000000E+00
  0.00000000E+00  0.00000000E+00  0.00000000E+00
  0.00000000E+00  0.00000000E+00  0.00000000E+00
  0.00000000E+00  0.00000000E+00  0.00000000E+00
  0.00000000E+00  0.00000000E+00  0.00000000E+00
  0.00000000E+00  0.00000000E+00  0.00000000E+00
  0.00000000E+00  0.00000000E+00  0.00000000E+00
  0.00000000E+00  0.00000000E+00  0.00000000E+00
  0.00000000E+00  0.00000000E+00  0.00000000E+00
  0.00000000E+00  0.00000000E+00  0.00000000E+00
  0.00000000E+00  0.00000000E+00  0.00000000E+00
  0.00000000E+00  0.00000000E+00  0.00000000E+00
  0.00000000E+00  0.00000000E+00  0.00000000E+00
  0.00000000E+00  0.00000000E+00  0.00000000E+00
  0.00000000E+00  0.00000000E+00  0.00000000E+00
  0.00000000E+00  0.00000000E+00  0.00000000E+00
  0.00000000E+00  0.00000000E+00  0.00000000E+00
  0.00000000E+00  0.00000000E+00  0.00000000E+00
  0.00000000E+00  0.00000000E+00  0.00000000E+00
  0.00000000E+00  0.00000000E+00  0.00000000E+00
  0.00000000E+00  0.00000000E+00  0.00000000E+00
  0.00000000E+00  0.00000000E+00  0.00000000E+00
  0.00000000E+00  0.00000000E+00  0.00000000E+00
  0.00000000E+00  0.00000000E+00  0.00000000E+00
  0.00000000E+00  0.00000000E+00  0.00000000E+00
  0.00000000E+00  0.00000000E+00  0.00000000E+00
  0.00000000E+00  0.00000000E+00  0.00000000E+00
  0.00000000E+00  0.00000000E+00  0.00000000E+00
  0.00000000E+00  0.00000000E+00  0.00000000E+00
  0.00000000E+00  0.00000000E+00  0.00000000E+00
  0.00000000E+00  0.00000000E+00  0.00000000E+00
  0.00000000E+00  0.00000000E+00  0.00000000E+00
  0.00000000E+00  0.00000000E+00  0.00000000E+00
  0.00000000E+00  0.00000000E+00  0.00000000E+00
  0.00000000E+00  0.00000000E+00  0.00000000E+00
  0.00000000E+00  0.00000000E+00  0.00000000E+00
  0.00000000E+00  0.00000000E+00  0.00000000E+00
  0.00000000E+00  0.00000000E+00  0.00000000E+00
  0.00000000E+00  0.00000000E+00  0.00000000E+00
  0.00000000E+00  0.00000000E+00  0.00000000E+00
  0.00000000E+00  0.00000000E+00  0.00000000E+00
  0.00000000E+00  0.00000000E+00  0.00000000E+00
  0.00000000E+00  0.00000000E+00  0.00000000E+00
  0.00000000E+00  0.00000000E+00  0.00000000E+00
  0.00000000E+00  0.00000000E+00  0.00000000E+00
  0.00000000E+00  0.00000000E+00  0.00000000E+00
  0.00000000E+00  0.00000000E+00  0.00000000E+00
  0.00000000E+00  0.00000000E+00  0.00000000E+00
  0.00000000E+00  0.00000000E+00  0.00000000E+00
  0.00000000E+00  0.00000000E+00  0.00000000E+00
  0.00000000E+00  0.00000000E+00  0.00000000E+00
  0.00000000E+00  0.00000000E+00  0.00000000E+00
