 C  N  C Ru                             
   1.00000000000000     
    17.0990259999999985   -9.8721239999999995    0.0000000000000000
     0.0000000000000000   19.7442530000000005    0.0000000000000000
     0.0000000000000000    0.0000000000000000   20.0000000000000000
   C    N    Ru
   125     1     1
Direct
  0.0208032355557911  0.9790144514107096  0.0000000000000000
  0.1035876448632207  0.0196943624543424  0.0000000000000000
  0.1454935398322834  0.9781757780041094  0.0000000000000000
  0.2285944060255593  0.0193519864901277  0.0000000000000000
  0.2706363623224042  0.9780563555469377  0.0000000000000000
  0.3538313833063871  0.0197523907177518  0.0000000000000000
  0.3957355626287225  0.9785065327170296  0.0000000000000000
  0.4789369641560531  0.0208990973140392  0.0000000000000000
  0.5208430077640144  0.9797096683986751  0.0000000000000000
  0.6040909665447012  0.0218043672315165  0.0000000000000000
  0.6460556675221043  0.9805232678117057  0.0000000000000000
  0.7292506284181178  0.0220675946278502  0.0000000000000000
  0.7712294349193040  0.9806195331397769  0.0000000000000000
  0.8543703752486755  0.0217386901730428  0.0000000000000000
  0.8962875585768485  0.9801959483596383  0.0000000000000000
  0.9790664115136545  0.0208512799485491  0.0000000000000000
  0.0197880723306862  0.1036323214205306  0.0000000000000000
  0.1025313297257152  0.1441646419568318  0.0000000000000000
  0.1442465592273433  0.1024458409648795  0.0000000000000000
  0.2270594821397821  0.1431560699979247  0.0000000000000000
  0.2695674401304610  0.1021805957289751  0.0000000000000000
  0.3527376012819470  0.1434616337646265  0.0000000000000000
  0.3951001923534980  0.1028530747937858  0.0000000000000000
  0.4783872292189124  0.1455093997644024  0.0000000000000000
  0.5203354154461118  0.1043013373023226  0.0000000000000000
  0.6035738228078573  0.1465071498340188  0.0000000000000000
  0.6454563088609764  0.1050537608940074  0.0000000000000000
  0.7286575196445151  0.1466714186336499  0.0000000000000000
  0.7704905992852951  0.1051343902210918  0.0000000000000000
  0.8536760948298304  0.1464433037768338  0.0000000000000000
  0.8954106619066916  0.1047144150781312  0.0000000000000000
  0.9783932361287968  0.1456904949744197  0.0000000000000000
  0.0197309106189203  0.2288390858221103  0.0000000000000000
  0.1025991032173869  0.2696912638259800  0.0000000000000000
  0.1433443936804672  0.2269385343200066  0.0000000000000000
  0.2256963931088757  0.2670929764518045  0.0000000000000000
  0.2674301736477357  0.2255362707087739  0.0000000000000000
  0.3503792565909741  0.2657281591258447  0.0000000000000000
  0.3936976335651757  0.2262129787748686  0.0000000000000000
  0.4769670358925390  0.2696383458871683  0.0000000000000000
  0.5196600206368512  0.2289260310471949  0.0000000000000000
  0.6028392014424656  0.2713219905664411  0.0000000000000000
  0.6448931016272232  0.2299401927983332  0.0000000000000000
  0.7283063953083183  0.2714742556305886  0.0000000000000000
  0.7700691453613069  0.2299245488997883  0.0000000000000000
  0.8534320128217212  0.2712817512506857  0.0000000000000000
  0.8950984419797245  0.2295790511566417  0.0000000000000000
  0.9782849750080762  0.2707658341718781  0.0000000000000000
  0.0200950614738283  0.3539269330655934  0.0000000000000000
  0.1033330899528003  0.3951173605520742  0.0000000000000000
  0.1444392621128521  0.3529659872109395  0.0000000000000000
  0.2274289978088538  0.3938152536151507  0.0000000000000000
  0.2667915401096285  0.3497878333736301  0.0000000000000000
  0.3486709051581769  0.3896582933779653  0.0000000000000000
  0.3911922697378830  0.3473030317391036  0.0000000000000000
  0.5160580851105135  0.3531212776794311  0.0000000000000000
  0.6016321895447394  0.3967929938180784  0.0000000000000000
  0.6435472778489330  0.3550763877610466  0.0000000000000000
  0.7280561867847570  0.3965172488624417  0.0000000000000000
  0.7698073352087340  0.3548074161520392  0.0000000000000000
  0.8534981819820666  0.3961591864110094  0.0000000000000000
  0.8951616538513975  0.3544485239918466  0.0000000000000000
  0.9786026612047561  0.3957536351060668  0.0000000000000000
  0.0208822309934255  0.4789503998513875  0.0000000000000000
  0.1043135466170434  0.5203162197943942  0.0000000000000000
  0.1456912160398314  0.4784285670201551  0.0000000000000000
  0.2290934057580001  0.5196848366590670  0.0000000000000000
  0.2703337608581429  0.4774259517897261  0.0000000000000000
  0.3539881586341074  0.5178718513583446  0.0000000000000000
  0.6477763371422796  0.4811860299817300  0.0000000000000000
  0.7310620701010040  0.5221151947422198  0.0000000000000000
  0.7716354767420206  0.4798346674348775  0.0000000000000000
  0.8549273255755223  0.5212248883234661  0.0000000000000000
  0.8960719568205509  0.4793323791440778  0.0000000000000000
  0.9794984108472190  0.5207468741802430  0.0000000000000000
  0.0215358992769209  0.6039720562855787  0.0000000000000000
  0.1048476579060364  0.6453289801101519  0.0000000000000000
  0.1464006203172478  0.6035318972792519  0.0000000000000000
  0.2298594062540767  0.6449558604212564  0.0000000000000000
  0.2713795918223488  0.6030594473275838  0.0000000000000000
  0.3552359429540221  0.6446233008962154  0.0000000000000000
  0.3969032346936434  0.6029408462642672  0.0000000000000000
  0.4812856901733505  0.6485916162246992  0.0000000000000000
  0.6095552250566860  0.6526457365371321  0.0000000000000000
  0.6516989599704324  0.6091248581614072  0.0000000000000000
  0.7335725599907376  0.6495206919004602  0.0000000000000000
  0.7731689850086308  0.6057019150468529  0.0000000000000000
  0.8559868529011196  0.6467571973061651  0.0000000000000000
  0.8970243905194667  0.6045695674047378  0.0000000000000000
  0.9801405430131335  0.6458909243253483  0.0000000000000000
  0.0217154661416924  0.7290647900585727  0.0000000000000000
  0.1048506746076650  0.7703131491737775  0.0000000000000000
  0.1464840124385993  0.7285646381428635  0.0000000000000000
  0.2297705039141582  0.7700531482933000  0.0000000000000000
  0.2714462554436667  0.7283983804135691  0.0000000000000000
  0.3548165199768701  0.7702276355438668  0.0000000000000000
  0.3966820655092638  0.7287984783625709  0.0000000000000000
  0.4800463926366206  0.7722125360308320  0.0000000000000000
  0.5223742788915238  0.7317179647560258  0.0000000000000000
  0.6059446789280604  0.7738184190867612  0.0000000000000000
  0.6498173773274276  0.7342214521577057  0.0000000000000000
  0.7326297001196903  0.7745056821473700  0.0000000000000000
  0.7741093264444078  0.7324932065757428  0.0000000000000000
  0.8565482864309387  0.7727671572154956  0.0000000000000000
  0.8974467447648701  0.7300764830690751  0.0000000000000000
  0.9802884062680906  0.7710341861663810  0.0000000000000000
  0.0215023547194107  0.8541778704401984  0.0000000000000000
  0.1044723873600025  0.8952149251296794  0.0000000000000000
  0.1462205194884192  0.8534990008655232  0.0000000000000000
  0.2293678206347634  0.8948799116709136  0.0000000000000000
  0.2711602471567918  0.8533698756707154  0.0000000000000000
  0.3543522589859197  0.8951938620971590  0.0000000000000000
  0.3961761465288455  0.8537925897028597  0.0000000000000000
  0.4794115089046139  0.8963812544258074  0.0000000000000000
  0.5214377994710692  0.8553988880801360  0.0000000000000000
  0.6047532053345149  0.8974824288531125  0.0000000000000000
  0.6469658565695223  0.8564828705921830  0.0000000000000000
  0.7302973863697596  0.8978483840230738  0.0000000000000000
  0.7729271004366459  0.8568861802668509  0.0000000000000000
  0.8556657448458775  0.8974504728316648  0.0000000000000000
  0.8972936436479262  0.8555918012433642  0.0000000000000000
  0.9800464155839839  0.8961840116835724  0.0000000000000000
  0.5267843675479891  0.6127731333796543  0.0000000000000000
  0.3908686144404831  0.4715715389250022  0.0000000000000000
  0.6119436392608879  0.5262470929951782  0.0000000000000000
  0.4710293172985539  0.3885340049195348  0.0000000000000000
  0.5043349126696660  0.5070070526322876  0.0000000000000000
 
  0.00000000E+00  0.00000000E+00  0.00000000E+00
  0.00000000E+00  0.00000000E+00  0.00000000E+00
  0.00000000E+00  0.00000000E+00  0.00000000E+00
  0.00000000E+00  0.00000000E+00  0.00000000E+00
  0.00000000E+00  0.00000000E+00  0.00000000E+00
  0.00000000E+00  0.00000000E+00  0.00000000E+00
  0.00000000E+00  0.00000000E+00  0.00000000E+00
  0.00000000E+00  0.00000000E+00  0.00000000E+00
  0.00000000E+00  0.00000000E+00  0.00000000E+00
  0.00000000E+00  0.00000000E+00  0.00000000E+00
  0.00000000E+00  0.00000000E+00  0.00000000E+00
  0.00000000E+00  0.00000000E+00  0.00000000E+00
  0.00000000E+00  0.00000000E+00  0.00000000E+00
  0.00000000E+00  0.00000000E+00  0.00000000E+00
  0.00000000E+00  0.00000000E+00  0.00000000E+00
  0.00000000E+00  0.00000000E+00  0.00000000E+00
  0.00000000E+00  0.00000000E+00  0.00000000E+00
  0.00000000E+00  0.00000000E+00  0.00000000E+00
  0.00000000E+00  0.00000000E+00  0.00000000E+00
  0.00000000E+00  0.00000000E+00  0.00000000E+00
  0.00000000E+00  0.00000000E+00  0.00000000E+00
  0.00000000E+00  0.00000000E+00  0.00000000E+00
  0.00000000E+00  0.00000000E+00  0.00000000E+00
  0.00000000E+00  0.00000000E+00  0.00000000E+00
  0.00000000E+00  0.00000000E+00  0.00000000E+00
  0.00000000E+00  0.00000000E+00  0.00000000E+00
  0.00000000E+00  0.00000000E+00  0.00000000E+00
  0.00000000E+00  0.00000000E+00  0.00000000E+00
  0.00000000E+00  0.00000000E+00  0.00000000E+00
  0.00000000E+00  0.00000000E+00  0.00000000E+00
  0.00000000E+00  0.00000000E+00  0.00000000E+00
  0.00000000E+00  0.00000000E+00  0.00000000E+00
  0.00000000E+00  0.00000000E+00  0.00000000E+00
  0.00000000E+00  0.00000000E+00  0.00000000E+00
  0.00000000E+00  0.00000000E+00  0.00000000E+00
  0.00000000E+00  0.00000000E+00  0.00000000E+00
  0.00000000E+00  0.00000000E+00  0.00000000E+00
  0.00000000E+00  0.00000000E+00  0.00000000E+00
  0.00000000E+00  0.00000000E+00  0.00000000E+00
  0.00000000E+00  0.00000000E+00  0.00000000E+00
  0.00000000E+00  0.00000000E+00  0.00000000E+00
  0.00000000E+00  0.00000000E+00  0.00000000E+00
  0.00000000E+00  0.00000000E+00  0.00000000E+00
  0.00000000E+00  0.00000000E+00  0.00000000E+00
  0.00000000E+00  0.00000000E+00  0.00000000E+00
  0.00000000E+00  0.00000000E+00  0.00000000E+00
  0.00000000E+00  0.00000000E+00  0.00000000E+00
  0.00000000E+00  0.00000000E+00  0.00000000E+00
  0.00000000E+00  0.00000000E+00  0.00000000E+00
  0.00000000E+00  0.00000000E+00  0.00000000E+00
  0.00000000E+00  0.00000000E+00  0.00000000E+00
  0.00000000E+00  0.00000000E+00  0.00000000E+00
  0.00000000E+00  0.00000000E+00  0.00000000E+00
  0.00000000E+00  0.00000000E+00  0.00000000E+00
  0.00000000E+00  0.00000000E+00  0.00000000E+00
  0.00000000E+00  0.00000000E+00  0.00000000E+00
  0.00000000E+00  0.00000000E+00  0.00000000E+00
  0.00000000E+00  0.00000000E+00  0.00000000E+00
  0.00000000E+00  0.00000000E+00  0.00000000E+00
  0.00000000E+00  0.00000000E+00  0.00000000E+00
  0.00000000E+00  0.00000000E+00  0.00000000E+00
  0.00000000E+00  0.00000000E+00  0.00000000E+00
  0.00000000E+00  0.00000000E+00  0.00000000E+00
  0.00000000E+00  0.00000000E+00  0.00000000E+00
  0.00000000E+00  0.00000000E+00  0.00000000E+00
  0.00000000E+00  0.00000000E+00  0.00000000E+00
  0.00000000E+00  0.00000000E+00  0.00000000E+00
  0.00000000E+00  0.00000000E+00  0.00000000E+00
  0.00000000E+00  0.00000000E+00  0.00000000E+00
  0.00000000E+00  0.00000000E+00  0.00000000E+00
  0.00000000E+00  0.00000000E+00  0.00000000E+00
  0.00000000E+00  0.00000000E+00  0.00000000E+00
  0.00000000E+00  0.00000000E+00  0.00000000E+00
  0.00000000E+00  0.00000000E+00  0.00000000E+00
  0.00000000E+00  0.00000000E+00  0.00000000E+00
  0.00000000E+00  0.00000000E+00  0.00000000E+00
  0.00000000E+00  0.00000000E+00  0.00000000E+00
  0.00000000E+00  0.00000000E+00  0.00000000E+00
  0.00000000E+00  0.00000000E+00  0.00000000E+00
  0.00000000E+00  0.00000000E+00  0.00000000E+00
  0.00000000E+00  0.00000000E+00  0.00000000E+00
  0.00000000E+00  0.00000000E+00  0.00000000E+00
  0.00000000E+00  0.00000000E+00  0.00000000E+00
  0.00000000E+00  0.00000000E+00  0.00000000E+00
  0.00000000E+00  0.00000000E+00  0.00000000E+00
  0.00000000E+00  0.00000000E+00  0.00000000E+00
  0.00000000E+00  0.00000000E+00  0.00000000E+00
  0.00000000E+00  0.00000000E+00  0.00000000E+00
  0.00000000E+00  0.00000000E+00  0.00000000E+00
  0.00000000E+00  0.00000000E+00  0.00000000E+00
  0.00000000E+00  0.00000000E+00  0.00000000E+00
  0.00000000E+00  0.00000000E+00  0.00000000E+00
  0.00000000E+00  0.00000000E+00  0.00000000E+00
  0.00000000E+00  0.00000000E+00  0.00000000E+00
  0.00000000E+00  0.00000000E+00  0.00000000E+00
  0.00000000E+00  0.00000000E+00  0.00000000E+00
  0.00000000E+00  0.00000000E+00  0.00000000E+00
  0.00000000E+00  0.00000000E+00  0.00000000E+00
  0.00000000E+00  0.00000000E+00  0.00000000E+00
  0.00000000E+00  0.00000000E+00  0.00000000E+00
  0.00000000E+00  0.00000000E+00  0.00000000E+00
  0.00000000E+00  0.00000000E+00  0.00000000E+00
  0.00000000E+00  0.00000000E+00  0.00000000E+00
  0.00000000E+00  0.00000000E+00  0.00000000E+00
  0.00000000E+00  0.00000000E+00  0.00000000E+00
  0.00000000E+00  0.00000000E+00  0.00000000E+00
  0.00000000E+00  0.00000000E+00  0.00000000E+00
  0.00000000E+00  0.00000000E+00  0.00000000E+00
  0.00000000E+00  0.00000000E+00  0.00000000E+00
  0.00000000E+00  0.00000000E+00  0.00000000E+00
  0.00000000E+00  0.00000000E+00  0.00000000E+00
  0.00000000E+00  0.00000000E+00  0.00000000E+00
  0.00000000E+00  0.00000000E+00  0.00000000E+00
  0.00000000E+00  0.00000000E+00  0.00000000E+00
  0.00000000E+00  0.00000000E+00  0.00000000E+00
  0.00000000E+00  0.00000000E+00  0.00000000E+00
  0.00000000E+00  0.00000000E+00  0.00000000E+00
  0.00000000E+00  0.00000000E+00  0.00000000E+00
  0.00000000E+00  0.00000000E+00  0.00000000E+00
  0.00000000E+00  0.00000000E+00  0.00000000E+00
  0.00000000E+00  0.00000000E+00  0.00000000E+00
  0.00000000E+00  0.00000000E+00  0.00000000E+00
  0.00000000E+00  0.00000000E+00  0.00000000E+00
  0.00000000E+00  0.00000000E+00  0.00000000E+00
  0.00000000E+00  0.00000000E+00  0.00000000E+00
  0.00000000E+00  0.00000000E+00  0.00000000E+00
  0.00000000E+00  0.00000000E+00  0.00000000E+00
