 C  N  C  N Ru                          
   1.00000000000000     
    17.0990259999999985   -9.8721239999999995    0.0000000000000000
     0.0000000000000000   19.7442530000000005    0.0000000000000000
     0.0000000000000000    0.0000000000000000   20.0000000000000000
   C    N    Ru
   124     2     1
Direct
  0.0209338494991036  0.9791204742350791  0.0000000000000000
  0.1036439895535264  0.0196589959619873  0.0000000000000000
  0.1457135578343816  0.9782196230162483  0.0000000000000000
  0.2288041291365467  0.0194018599801377  0.0000000000000000
  0.2707897433306158  0.9779699134604939  0.0000000000000000
  0.3539363749375692  0.0197300665563265  0.0000000000000000
  0.3958574143972632  0.9783012931830415  0.0000000000000000
  0.4790484549288830  0.0206309310080372  0.0000000000000000
  0.5208971437602961  0.9793279112678541  0.0000000000000000
  0.6041023498166216  0.0216712713286617  0.0000000000000000
  0.6460694710622358  0.9802919750909485  0.0000000000000000
  0.7292335762573983  0.0220939491847356  0.0000000000000000
  0.7712735220771371  0.9807166227096316  0.0000000000000000
  0.8543605120924135  0.0218926259091195  0.0000000000000000
  0.8964136941195638  0.9804330765105017  0.0000000000000000
  0.9791316876256816  0.0209682643360233  0.0000000000000000
  0.0196509849366173  0.1036862556162969  0.0000000000000000
  0.1023306355788190  0.1441361294767790  0.0000000000000000
  0.1440478438048482  0.1023364013275557  0.0000000000000000
  0.2267358851035739  0.1429467287995962  0.0000000000000000
  0.2695752424312433  0.1022098245706181  0.0000000000000000
  0.3528090985445511  0.1439454585488011  0.0000000000000000
  0.3950642595978073  0.1029474167793243  0.0000000000000000
  0.4783752330616970  0.1453369951566703  0.0000000000000000
  0.5203146831391995  0.1041489407206832  0.0000000000000000
  0.6035112074646958  0.1467407205628120  0.0000000000000000
  0.6453271572088310  0.1051164745719048  0.0000000000000000
  0.7285273709966374  0.1468390866973366  0.0000000000000000
  0.7703348169888252  0.1052341920378067  0.0000000000000000
  0.8534533980508386  0.1465550725741500  0.0000000000000000
  0.8952011016626392  0.1048007575940995  0.0000000000000000
  0.9781137655877195  0.1456606146618262  0.0000000000000000
  0.0192016243874616  0.2287296401342500  0.0000000000000000
  0.1019848003731310  0.2695252087065525  0.0000000000000000
  0.1429091179206149  0.2268823556737648  0.0000000000000000
  0.2251908662502920  0.2669912997087746  0.0000000000000000
  0.2667553803187393  0.2252161590103403  0.0000000000000000
  0.3493803844078930  0.2660812384813445  0.0000000000000000
  0.3935533422825587  0.2268182840864962  0.0000000000000000
  0.4771979456176901  0.2695383686418385  0.0000000000000000
  0.5195758915809463  0.2287663325898413  0.0000000000000000
  0.6028927200642374  0.2721862263920567  0.0000000000000000
  0.6447642684732591  0.2304576165440899  0.0000000000000000
  0.7281509652785402  0.2719155429812047  0.0000000000000000
  0.7698396033995785  0.2301905614967907  0.0000000000000000
  0.8531591283335437  0.2715050514287514  0.0000000000000000
  0.8947116563623168  0.2296687048170118  0.0000000000000000
  0.9778608468358306  0.2708202223985706  0.0000000000000000
  0.0195326869000812  0.3539916169059825  0.0000000000000000
  0.1026908438645236  0.3951265327775302  0.0000000000000000
  0.1433151739611032  0.3527114551490800  0.0000000000000000
  0.2260504454391902  0.3934979760148584  0.0000000000000000
  0.2653926924226935  0.3498811824987677  0.0000000000000000
  0.3467229000766180  0.3901767648106194  0.0000000000000000
  0.3894805433311808  0.3478519388680894  0.0000000000000000
  0.5172581270796740  0.3528937354994808  0.0000000000000000
  0.6020487002676027  0.3984831067762576  0.0000000000000000
  0.6441642290487329  0.3566986572205674  0.0000000000000000
  0.7281850843381676  0.3973354956971791  0.0000000000000000
  0.7697173412113394  0.3553170264885628  0.0000000000000000
  0.8533059667228848  0.3965170481884420  0.0000000000000000
  0.8948487499367443  0.3546791808551632  0.0000000000000000
  0.9782207188661817  0.3959252371245342  0.0000000000000000
  0.0206438706351103  0.4790925647154867  0.0000000000000000
  0.1041850786749501  0.5203325940880350  0.0000000000000000
  0.1454611402876219  0.4783882533924989  0.0000000000000000
  0.2289894609235336  0.5195147035530477  0.0000000000000000
  0.2696078133294819  0.4767765815459865  0.0000000000000000
  0.3530895751485896  0.5159521331180286  0.0000000000000000
  0.6469432918042477  0.4840896550442538  0.0000000000000000
  0.7304205007606313  0.5232859396706805  0.0000000000000000
  0.7710147062237552  0.4805383581830613  0.0000000000000000
  0.8545297346893141  0.5217001660702907  0.0000000000000000
  0.8957784626864983  0.4797234404497628  0.0000000000000000
  0.9793225611016567  0.5209639869613174  0.0000000000000000
  0.0217322490398116  0.6041280910953085  0.0000000000000000
  0.1051044778985154  0.6453482800349575  0.0000000000000000
  0.1466698263070158  0.6035214195172081  0.0000000000000000
  0.2302655960261774  0.6446874050745052  0.0000000000000000
  0.2718292077828339  0.6026978891054505  0.0000000000000000
  0.3558616704217482  0.6433247106048897  0.0000000000000000
  0.3980000638518726  0.6015816373031337  0.0000000000000000
  0.4828053480558109  0.6472312381458033  0.0000000000000000
  0.6105843377249587  0.6522520996239134  0.0000000000000000
  0.6532943059874770  0.6098799728069835  0.0000000000000000
  0.7346210717787089  0.6501934254926518  0.0000000000000000
  0.7739659196007870  0.6065892082424835  0.0000000000000000
  0.8566879805684072  0.6473920851339027  0.0000000000000000
  0.8973001157855134  0.6049652858223077  0.0000000000000000
  0.9804439318712148  0.6460821204484176  0.0000000000000000
  0.0221149262550204  0.7292447628219614  0.0000000000000000
  0.1052591881506344  0.7703569216852283  0.0000000000000000
  0.1468126188265385  0.7285124536139249  0.0000000000000000
  0.2301286068116206  0.7697983267730081  0.0000000000000000
  0.2718150924938313  0.7280746313740093  0.0000000000000000
  0.3551995610435672  0.7694922774597380  0.0000000000000000
  0.3971197965797236  0.7278117617993363  0.0000000000000000
  0.4804424115324956  0.7712796900727635  0.0000000000000000
  0.5228817488088351  0.7305863777353605  0.0000000000000000
  0.6065147362312618  0.7732823201999960  0.0000000000000000
  0.6506829014624782  0.7340173922306018  0.0000000000000000
  0.7333024615461600  0.7749003696362488  0.0000000000000000
  0.7748264912703164  0.7330952702712046  0.0000000000000000
  0.8571081145518388  0.7732043961023443  0.0000000000000000
  0.8980354778658203  0.7305779199232201  0.0000000000000000
  0.9808050744201856  0.7713559295238618  0.0000000000000000
  0.0219114391281509  0.8544201335595756  0.0000000000000000
  0.1048277257279765  0.8952878120325610  0.0000000000000000
  0.1465383508441730  0.8534846324355679  0.0000000000000000
  0.2296702925206153  0.8947976515744851  0.0000000000000000
  0.2714360945614144  0.8531387170391009  0.0000000000000000
  0.3546277025835978  0.8948430000964168  0.0000000000000000
  0.3964313610070937  0.8531936820404147  0.0000000000000000
  0.4796249334242251  0.8958221938314271  0.0000000000000000
  0.5216090437923527  0.8546820787209497  0.0000000000000000
  0.6049360462227901  0.8970837220257232  0.0000000000000000
  0.6472491159726267  0.8561420761312512  0.0000000000000000
  0.7305121586495434  0.8979079898825634  0.0000000000000000
  0.7733487552668871  0.8571780124544823  0.0000000000000000
  0.8560255215716708  0.8977611680498400  0.0000000000000000
  0.8977351281194182  0.8559647326899273  0.0000000000000000
  0.9804071617854118  0.8964086592703341  0.0000000000000000
  0.5284242086946266  0.6108215954026418  0.0000000000000000
  0.4716377058136835  0.3892895134902806  0.0000000000000000
  0.6121677423589101  0.5296308992006147  0.0000000000000000
  0.3878430543856498  0.4704146709954727  0.0000000000000000
  0.5000090508116144  0.5000443212072502  0.0000000000000000
 
  0.00000000E+00  0.00000000E+00  0.00000000E+00
  0.00000000E+00  0.00000000E+00  0.00000000E+00
  0.00000000E+00  0.00000000E+00  0.00000000E+00
  0.00000000E+00  0.00000000E+00  0.00000000E+00
  0.00000000E+00  0.00000000E+00  0.00000000E+00
  0.00000000E+00  0.00000000E+00  0.00000000E+00
  0.00000000E+00  0.00000000E+00  0.00000000E+00
  0.00000000E+00  0.00000000E+00  0.00000000E+00
  0.00000000E+00  0.00000000E+00  0.00000000E+00
  0.00000000E+00  0.00000000E+00  0.00000000E+00
  0.00000000E+00  0.00000000E+00  0.00000000E+00
  0.00000000E+00  0.00000000E+00  0.00000000E+00
  0.00000000E+00  0.00000000E+00  0.00000000E+00
  0.00000000E+00  0.00000000E+00  0.00000000E+00
  0.00000000E+00  0.00000000E+00  0.00000000E+00
  0.00000000E+00  0.00000000E+00  0.00000000E+00
  0.00000000E+00  0.00000000E+00  0.00000000E+00
  0.00000000E+00  0.00000000E+00  0.00000000E+00
  0.00000000E+00  0.00000000E+00  0.00000000E+00
  0.00000000E+00  0.00000000E+00  0.00000000E+00
  0.00000000E+00  0.00000000E+00  0.00000000E+00
  0.00000000E+00  0.00000000E+00  0.00000000E+00
  0.00000000E+00  0.00000000E+00  0.00000000E+00
  0.00000000E+00  0.00000000E+00  0.00000000E+00
  0.00000000E+00  0.00000000E+00  0.00000000E+00
  0.00000000E+00  0.00000000E+00  0.00000000E+00
  0.00000000E+00  0.00000000E+00  0.00000000E+00
  0.00000000E+00  0.00000000E+00  0.00000000E+00
  0.00000000E+00  0.00000000E+00  0.00000000E+00
  0.00000000E+00  0.00000000E+00  0.00000000E+00
  0.00000000E+00  0.00000000E+00  0.00000000E+00
  0.00000000E+00  0.00000000E+00  0.00000000E+00
  0.00000000E+00  0.00000000E+00  0.00000000E+00
  0.00000000E+00  0.00000000E+00  0.00000000E+00
  0.00000000E+00  0.00000000E+00  0.00000000E+00
  0.00000000E+00  0.00000000E+00  0.00000000E+00
  0.00000000E+00  0.00000000E+00  0.00000000E+00
  0.00000000E+00  0.00000000E+00  0.00000000E+00
  0.00000000E+00  0.00000000E+00  0.00000000E+00
  0.00000000E+00  0.00000000E+00  0.00000000E+00
  0.00000000E+00  0.00000000E+00  0.00000000E+00
  0.00000000E+00  0.00000000E+00  0.00000000E+00
  0.00000000E+00  0.00000000E+00  0.00000000E+00
  0.00000000E+00  0.00000000E+00  0.00000000E+00
  0.00000000E+00  0.00000000E+00  0.00000000E+00
  0.00000000E+00  0.00000000E+00  0.00000000E+00
  0.00000000E+00  0.00000000E+00  0.00000000E+00
  0.00000000E+00  0.00000000E+00  0.00000000E+00
  0.00000000E+00  0.00000000E+00  0.00000000E+00
  0.00000000E+00  0.00000000E+00  0.00000000E+00
  0.00000000E+00  0.00000000E+00  0.00000000E+00
  0.00000000E+00  0.00000000E+00  0.00000000E+00
  0.00000000E+00  0.00000000E+00  0.00000000E+00
  0.00000000E+00  0.00000000E+00  0.00000000E+00
  0.00000000E+00  0.00000000E+00  0.00000000E+00
  0.00000000E+00  0.00000000E+00  0.00000000E+00
  0.00000000E+00  0.00000000E+00  0.00000000E+00
  0.00000000E+00  0.00000000E+00  0.00000000E+00
  0.00000000E+00  0.00000000E+00  0.00000000E+00
  0.00000000E+00  0.00000000E+00  0.00000000E+00
  0.00000000E+00  0.00000000E+00  0.00000000E+00
  0.00000000E+00  0.00000000E+00  0.00000000E+00
  0.00000000E+00  0.00000000E+00  0.00000000E+00
  0.00000000E+00  0.00000000E+00  0.00000000E+00
  0.00000000E+00  0.00000000E+00  0.00000000E+00
  0.00000000E+00  0.00000000E+00  0.00000000E+00
  0.00000000E+00  0.00000000E+00  0.00000000E+00
  0.00000000E+00  0.00000000E+00  0.00000000E+00
  0.00000000E+00  0.00000000E+00  0.00000000E+00
  0.00000000E+00  0.00000000E+00  0.00000000E+00
  0.00000000E+00  0.00000000E+00  0.00000000E+00
  0.00000000E+00  0.00000000E+00  0.00000000E+00
  0.00000000E+00  0.00000000E+00  0.00000000E+00
  0.00000000E+00  0.00000000E+00  0.00000000E+00
  0.00000000E+00  0.00000000E+00  0.00000000E+00
  0.00000000E+00  0.00000000E+00  0.00000000E+00
  0.00000000E+00  0.00000000E+00  0.00000000E+00
  0.00000000E+00  0.00000000E+00  0.00000000E+00
  0.00000000E+00  0.00000000E+00  0.00000000E+00
  0.00000000E+00  0.00000000E+00  0.00000000E+00
  0.00000000E+00  0.00000000E+00  0.00000000E+00
  0.00000000E+00  0.00000000E+00  0.00000000E+00
  0.00000000E+00  0.00000000E+00  0.00000000E+00
  0.00000000E+00  0.00000000E+00  0.00000000E+00
  0.00000000E+00  0.00000000E+00  0.00000000E+00
  0.00000000E+00  0.00000000E+00  0.00000000E+00
  0.00000000E+00  0.00000000E+00  0.00000000E+00
  0.00000000E+00  0.00000000E+00  0.00000000E+00
  0.00000000E+00  0.00000000E+00  0.00000000E+00
  0.00000000E+00  0.00000000E+00  0.00000000E+00
  0.00000000E+00  0.00000000E+00  0.00000000E+00
  0.00000000E+00  0.00000000E+00  0.00000000E+00
  0.00000000E+00  0.00000000E+00  0.00000000E+00
  0.00000000E+00  0.00000000E+00  0.00000000E+00
  0.00000000E+00  0.00000000E+00  0.00000000E+00
  0.00000000E+00  0.00000000E+00  0.00000000E+00
  0.00000000E+00  0.00000000E+00  0.00000000E+00
  0.00000000E+00  0.00000000E+00  0.00000000E+00
  0.00000000E+00  0.00000000E+00  0.00000000E+00
  0.00000000E+00  0.00000000E+00  0.00000000E+00
  0.00000000E+00  0.00000000E+00  0.00000000E+00
  0.00000000E+00  0.00000000E+00  0.00000000E+00
  0.00000000E+00  0.00000000E+00  0.00000000E+00
  0.00000000E+00  0.00000000E+00  0.00000000E+00
  0.00000000E+00  0.00000000E+00  0.00000000E+00
  0.00000000E+00  0.00000000E+00  0.00000000E+00
  0.00000000E+00  0.00000000E+00  0.00000000E+00
  0.00000000E+00  0.00000000E+00  0.00000000E+00
  0.00000000E+00  0.00000000E+00  0.00000000E+00
  0.00000000E+00  0.00000000E+00  0.00000000E+00
  0.00000000E+00  0.00000000E+00  0.00000000E+00
  0.00000000E+00  0.00000000E+00  0.00000000E+00
  0.00000000E+00  0.00000000E+00  0.00000000E+00
  0.00000000E+00  0.00000000E+00  0.00000000E+00
  0.00000000E+00  0.00000000E+00  0.00000000E+00
  0.00000000E+00  0.00000000E+00  0.00000000E+00
  0.00000000E+00  0.00000000E+00  0.00000000E+00
  0.00000000E+00  0.00000000E+00  0.00000000E+00
  0.00000000E+00  0.00000000E+00  0.00000000E+00
  0.00000000E+00  0.00000000E+00  0.00000000E+00
  0.00000000E+00  0.00000000E+00  0.00000000E+00
  0.00000000E+00  0.00000000E+00  0.00000000E+00
  0.00000000E+00  0.00000000E+00  0.00000000E+00
  0.00000000E+00  0.00000000E+00  0.00000000E+00
  0.00000000E+00  0.00000000E+00  0.00000000E+00
  0.00000000E+00  0.00000000E+00  0.00000000E+00
  0.00000000E+00  0.00000000E+00  0.00000000E+00
