RuN9                                    
   1.00000000000000     
    17.0990259999999985   -9.8721239999999995    0.0000000000000000
     0.0000000000000000   19.7442530000000005    0.0000000000000000
     0.0000000000000000    0.0000000000000000   20.0000000000000000
   C    N    Ru
   117     9     1
Selective dynamics
Direct
  0.0210184810274255  0.9793149413130402  0.0000000000000000   T   T   T
  0.1040033610461016  0.0202260694434403  0.0000000000000000   T   T   T
  0.1456909366459099  0.9785467849300141  0.0000000000000000   T   T   T
  0.2289619077442596  0.0200736793917744  0.0000000000000000   T   T   T
  0.2709030318427985  0.9783337349876647  0.0000000000000000   T   T   T
  0.3540309424956188  0.0201290843349593  0.0000000000000000   T   T   T
  0.3959310050214568  0.9783213024886243  0.0000000000000000   T   T   T
  0.4792027361073825  0.0207273366179475  0.0000000000000000   T   T   T
  0.5209676808458283  0.9788986979127465  0.0000000000000000   T   T   T
  0.6042228110359626  0.0214975354419498  0.0000000000000000   T   T   T
  0.6460915763608489  0.9797098968477925  0.0000000000000000   T   T   T
  0.7293479810755349  0.0217629073620933  0.0000000000000000   T   T   T
  0.7712819066417629  0.9803801006492325  0.0000000000000000   T   T   T
  0.8543934316831403  0.0217657710640697  0.0000000000000000   T   T   T
  0.8964483987331652  0.9803046155261911  0.0000000000000000   T   T   T
  0.9793494048932729  0.0211982363267727  0.0000000000000000   T   T   T
  0.0203160335022571  0.1042268889808440  0.0000000000000000   T   T   T
  0.1033449715680005  0.1449710974449535  0.0000000000000000   T   T   T
  0.1448359713268217  0.1033245494374348  0.0000000000000000   T   T   T
  0.2277965083695970  0.1445279935394659  0.0000000000000000   T   T   T
  0.2696654923273894  0.1028438302698086  0.0000000000000000   T   T   T
  0.3529533721398610  0.1450244486684369  0.0000000000000000   T   T   T
  0.3952221931844623  0.1037121992630833  0.0000000000000000   T   T   T
  0.4783668871516133  0.1459769750448882  0.0000000000000000   T   T   T
  0.5203100147194404  0.1044491493196730  0.0000000000000000   T   T   T
  0.6034900186034734  0.1472502500404769  0.0000000000000000   T   T   T
  0.6452668546120645  0.1052559167641837  0.0000000000000000   T   T   T
  0.7285960977780397  0.1470416062228270  0.0000000000000000   T   T   T
  0.7705205895761096  0.1052536663275554  0.0000000000000000   T   T   T
  0.8536333534207344  0.1466333923607370  0.0000000000000000   T   T   T
  0.8955434545478922  0.1048662967692321  0.0000000000000000   T   T   T
  0.9786063774824727  0.1458857097397173  0.0000000000000000   T   T   T
  0.0201857905620459  0.2291508434054987  0.0000000000000000   T   T   T
  0.1029883131918629  0.2698517161338913  0.0000000000000000   T   T   T
  0.1446794791536510  0.2280047635113556  0.0000000000000000   T   T   T
  0.2271930743492048  0.2684993176114306  0.0000000000000000   T   T   T
  0.2683930869895928  0.2270510952557129  0.0000000000000000   T   T   T
  0.3934251534435955  0.2277255321138844  0.0000000000000000   T   T   T
  0.4767647529424825  0.2703858963153845  0.0000000000000000   T   T   T
  0.5185157013319678  0.2294002385480631  0.0000000000000000   T   T   T
  0.6021425535690521  0.2736473634559655  0.0000000000000000   T   T   T
  0.6444238166552974  0.2313308702121376  0.0000000000000000   T   T   T
  0.7275622129370797  0.2723734491927819  0.0000000000000000   T   T   T
  0.7697274492309725  0.2303646601744198  0.0000000000000000   T   T   T
  0.8530938220130769  0.2716569504709573  0.0000000000000000   T   T   T
  0.8950975424610544  0.2299723465733789  0.0000000000000000   T   T   T
  0.9784253894222815  0.2710828210814497  0.0000000000000000   T   T   T
  0.0203188466844901  0.3541879750321462  0.0000000000000000   T   T   T
  0.1038984368850107  0.3952990456238299  0.0000000000000000   T   T   T
  0.1452624272701493  0.3531048469964735  0.0000000000000000   T   T   T
  0.2280620739912744  0.3934966139433176  0.0000000000000000   T   T   T
  0.3490013361363862  0.3901707027937119  0.0000000000000000   T   T   T
  0.3900594169535227  0.3486673372133949  0.0000000000000000   T   T   T
  0.5153732351005069  0.3543499581473482  0.0000000000000000   T   T   T
  0.6425716387866445  0.3571629395696900  0.0000000000000000   T   T   T
  0.7260340139520790  0.3978287796786641  0.0000000000000000   T   T   T
  0.7684293919650452  0.3556016567843244  0.0000000000000000   T   T   T
  0.8524998356333531  0.3967121715288399  0.0000000000000000   T   T   T
  0.8946799522959833  0.3549774579497165  0.0000000000000000   T   T   T
  0.9783679048023924  0.3960214138403472  0.0000000000000000   T   T   T
  0.0207792803643595  0.4792575035626008  0.0000000000000000   T   T   T
  0.1045041780512296  0.5203452443949715  0.0000000000000000   T   T   T
  0.1462007663667315  0.4784510101466240  0.0000000000000000   T   T   T
  0.2295618126453745  0.5186560444534971  0.0000000000000000   T   T   T
  0.2710438359878494  0.4769489200898585  0.0000000000000000   T   T   T
  0.3547712906654301  0.5160818855001553  0.0000000000000000   T   T   T
  0.6450977442754419  0.4845008877274379  0.0000000000000000   T   T   T
  0.7282478957183414  0.5231283187670747  0.0000000000000000   T   T   T
  0.7699731558759698  0.4813863311875823  0.0000000000000000   T   T   T
  0.8533391404605849  0.5217376583675476  0.0000000000000000   T   T   T
  0.8951086446323812  0.4798074765909867  0.0000000000000000   T   T   T
  0.9788696937090473  0.5209503683694231  0.0000000000000000   T   T   T
  0.0213698274725313  0.6041546374852672  0.0000000000000000   T   T   T
  0.1050427871961575  0.6452215414941204  0.0000000000000000   T   T   T
  0.1470330213590685  0.6034349346320660  0.0000000000000000   T   T   T
  0.2309858039527303  0.6444206833138277  0.0000000000000000   T   T   T
  0.2731064611656825  0.6021533590049764  0.0000000000000000   T   T   T
  0.3565940104137376  0.6425766399547973  0.0000000000000000   T   T   T
  0.4839563608370676  0.6451072859488641  0.0000000000000000   T   T   T
  0.5287347418435299  0.6070524447364448  0.0000000000000000   T   T   T
  0.6526646167818283  0.6103210261437666  0.0000000000000000   T   T   T
  0.7720949817884613  0.6064856963442515  0.0000000000000000   T   T   T
  0.8547407512765596  0.6472118636467149  0.0000000000000000   T   T   T
  0.8960291476234158  0.6048839423070571  0.0000000000000000   T   T   T
  0.9795940021507841  0.6460354699801026  0.0000000000000000   T   T   T
  0.0217330368393839  0.7291525787446315  0.0000000000000000   T   T   T
  0.1050488071309939  0.7703879877548715  0.0000000000000000   T   T   T
  0.1468198612708792  0.7285059534963181  0.0000000000000000   T   T   T
  0.2301326165994970  0.7697114205926068  0.0000000000000000   T   T   T
  0.2720500372495525  0.7275791533503144  0.0000000000000000   T   T   T
  0.3551907388398177  0.7684790720313128  0.0000000000000000   T   T   T
  0.3972634666856381  0.7260412991216469  0.0000000000000000   T   T   T
  0.4808538819107289  0.7698914957802763  0.0000000000000000   T   T   T
  0.5219024297068857  0.7279789126227139  0.0000000000000000   T   T   T
  0.6063949107014025  0.7712925520440457  0.0000000000000000   T   T   T
  0.6504948265237426  0.7332877415415948  0.0000000000000000   T   T   T
  0.7324304706696300  0.7735325818946035  0.0000000000000000   T   T   T
  0.7743080983764327  0.7323063504606613  0.0000000000000000   T   T   T
  0.8560749738400436  0.7721752807181068  0.0000000000000000   T   T   T
  0.8975927990257142  0.7303580253414214  0.0000000000000000   T   T   T
  0.9802101136827525  0.7711226848659367  0.0000000000000000   T   T   T
  0.0216723182369827  0.8544231308178097  0.0000000000000000   T   T   T
  0.1046088519502384  0.8954767682627119  0.0000000000000000   T   T   T
  0.1464747148755803  0.8535753175831883  0.0000000000000000   T   T   T
  0.2296701660939851  0.8949812946889211  0.0000000000000000   T   T   T
  0.2714686391787103  0.8530109970246312  0.0000000000000000   T   T   T
  0.3548042774922283  0.8946042440405663  0.0000000000000000   T   T   T
  0.3964855886148223  0.8524712881832861  0.0000000000000000   T   T   T
  0.4798201425862602  0.8950877551702167  0.0000000000000000   T   T   T
  0.5216129189650085  0.8534145115257085  0.0000000000000000   T   T   T
  0.6051169628290077  0.8962013226430865  0.0000000000000000   T   T   T
  0.6472098809782233  0.8549725454938948  0.0000000000000000   T   T   T
  0.7302633700701160  0.8970684199290763  0.0000000000000000   T   T   T
  0.7728838954154464  0.8563430400703226  0.0000000000000000   T   T   T
  0.8556940905184142  0.8973842343786959  0.0000000000000000   T   T   T
  0.8970789493534562  0.8555000971977261  0.0000000000000000   T   T   T
  0.9799834660024088  0.8962293430044261  0.0000000000000000   T   T   T
  0.3503330270170654  0.2665241413358762  0.0000000000000000   T   T   T
  0.2669110028984621  0.3506854960721837  0.0000000000000000   T   T   T
  0.4705551961816169  0.3876271379247236  0.0000000000000000   T   T   T
  0.5994939519726723  0.4002513767079658  0.0000000000000000   T   T   T
  0.3894680655790148  0.4715614598427275  0.0000000000000000   T   T   T
  0.6107802817819954  0.5308880932801271  0.0000000000000000   T   T   T
  0.3989440436192153  0.5998154876076351  0.0000000000000000   T   T   T
  0.6118108408401969  0.6521546921543694  0.0000000000000000   T   T   T
  0.7325947923076860  0.6501298636994698  0.0000000000000000   T   T   T
  0.4996441107531968  0.5005812488596720  0.0000000000000000   T   T   T
 
  0.00000000E+00  0.00000000E+00  0.00000000E+00
  0.00000000E+00  0.00000000E+00  0.00000000E+00
  0.00000000E+00  0.00000000E+00  0.00000000E+00
  0.00000000E+00  0.00000000E+00  0.00000000E+00
  0.00000000E+00  0.00000000E+00  0.00000000E+00
  0.00000000E+00  0.00000000E+00  0.00000000E+00
  0.00000000E+00  0.00000000E+00  0.00000000E+00
  0.00000000E+00  0.00000000E+00  0.00000000E+00
  0.00000000E+00  0.00000000E+00  0.00000000E+00
  0.00000000E+00  0.00000000E+00  0.00000000E+00
  0.00000000E+00  0.00000000E+00  0.00000000E+00
  0.00000000E+00  0.00000000E+00  0.00000000E+00
  0.00000000E+00  0.00000000E+00  0.00000000E+00
  0.00000000E+00  0.00000000E+00  0.00000000E+00
  0.00000000E+00  0.00000000E+00  0.00000000E+00
  0.00000000E+00  0.00000000E+00  0.00000000E+00
  0.00000000E+00  0.00000000E+00  0.00000000E+00
  0.00000000E+00  0.00000000E+00  0.00000000E+00
  0.00000000E+00  0.00000000E+00  0.00000000E+00
  0.00000000E+00  0.00000000E+00  0.00000000E+00
  0.00000000E+00  0.00000000E+00  0.00000000E+00
  0.00000000E+00  0.00000000E+00  0.00000000E+00
  0.00000000E+00  0.00000000E+00  0.00000000E+00
  0.00000000E+00  0.00000000E+00  0.00000000E+00
  0.00000000E+00  0.00000000E+00  0.00000000E+00
  0.00000000E+00  0.00000000E+00  0.00000000E+00
  0.00000000E+00  0.00000000E+00  0.00000000E+00
  0.00000000E+00  0.00000000E+00  0.00000000E+00
  0.00000000E+00  0.00000000E+00  0.00000000E+00
  0.00000000E+00  0.00000000E+00  0.00000000E+00
  0.00000000E+00  0.00000000E+00  0.00000000E+00
  0.00000000E+00  0.00000000E+00  0.00000000E+00
  0.00000000E+00  0.00000000E+00  0.00000000E+00
  0.00000000E+00  0.00000000E+00  0.00000000E+00
  0.00000000E+00  0.00000000E+00  0.00000000E+00
  0.00000000E+00  0.00000000E+00  0.00000000E+00
  0.00000000E+00  0.00000000E+00  0.00000000E+00
  0.00000000E+00  0.00000000E+00  0.00000000E+00
  0.00000000E+00  0.00000000E+00  0.00000000E+00
  0.00000000E+00  0.00000000E+00  0.00000000E+00
  0.00000000E+00  0.00000000E+00  0.00000000E+00
  0.00000000E+00  0.00000000E+00  0.00000000E+00
  0.00000000E+00  0.00000000E+00  0.00000000E+00
  0.00000000E+00  0.00000000E+00  0.00000000E+00
  0.00000000E+00  0.00000000E+00  0.00000000E+00
  0.00000000E+00  0.00000000E+00  0.00000000E+00
  0.00000000E+00  0.00000000E+00  0.00000000E+00
  0.00000000E+00  0.00000000E+00  0.00000000E+00
  0.00000000E+00  0.00000000E+00  0.00000000E+00
  0.00000000E+00  0.00000000E+00  0.00000000E+00
  0.00000000E+00  0.00000000E+00  0.00000000E+00
  0.00000000E+00  0.00000000E+00  0.00000000E+00
  0.00000000E+00  0.00000000E+00  0.00000000E+00
  0.00000000E+00  0.00000000E+00  0.00000000E+00
  0.00000000E+00  0.00000000E+00  0.00000000E+00
  0.00000000E+00  0.00000000E+00  0.00000000E+00
  0.00000000E+00  0.00000000E+00  0.00000000E+00
  0.00000000E+00  0.00000000E+00  0.00000000E+00
  0.00000000E+00  0.00000000E+00  0.00000000E+00
  0.00000000E+00  0.00000000E+00  0.00000000E+00
  0.00000000E+00  0.00000000E+00  0.00000000E+00
  0.00000000E+00  0.00000000E+00  0.00000000E+00
  0.00000000E+00  0.00000000E+00  0.00000000E+00
  0.00000000E+00  0.00000000E+00  0.00000000E+00
  0.00000000E+00  0.00000000E+00  0.00000000E+00
  0.00000000E+00  0.00000000E+00  0.00000000E+00
  0.00000000E+00  0.00000000E+00  0.00000000E+00
  0.00000000E+00  0.00000000E+00  0.00000000E+00
  0.00000000E+00  0.00000000E+00  0.00000000E+00
  0.00000000E+00  0.00000000E+00  0.00000000E+00
  0.00000000E+00  0.00000000E+00  0.00000000E+00
  0.00000000E+00  0.00000000E+00  0.00000000E+00
  0.00000000E+00  0.00000000E+00  0.00000000E+00
  0.00000000E+00  0.00000000E+00  0.00000000E+00
  0.00000000E+00  0.00000000E+00  0.00000000E+00
  0.00000000E+00  0.00000000E+00  0.00000000E+00
  0.00000000E+00  0.00000000E+00  0.00000000E+00
  0.00000000E+00  0.00000000E+00  0.00000000E+00
  0.00000000E+00  0.00000000E+00  0.00000000E+00
  0.00000000E+00  0.00000000E+00  0.00000000E+00
  0.00000000E+00  0.00000000E+00  0.00000000E+00
  0.00000000E+00  0.00000000E+00  0.00000000E+00
  0.00000000E+00  0.00000000E+00  0.00000000E+00
  0.00000000E+00  0.00000000E+00  0.00000000E+00
  0.00000000E+00  0.00000000E+00  0.00000000E+00
  0.00000000E+00  0.00000000E+00  0.00000000E+00
  0.00000000E+00  0.00000000E+00  0.00000000E+00
  0.00000000E+00  0.00000000E+00  0.00000000E+00
  0.00000000E+00  0.00000000E+00  0.00000000E+00
  0.00000000E+00  0.00000000E+00  0.00000000E+00
  0.00000000E+00  0.00000000E+00  0.00000000E+00
  0.00000000E+00  0.00000000E+00  0.00000000E+00
  0.00000000E+00  0.00000000E+00  0.00000000E+00
  0.00000000E+00  0.00000000E+00  0.00000000E+00
  0.00000000E+00  0.00000000E+00  0.00000000E+00
  0.00000000E+00  0.00000000E+00  0.00000000E+00
  0.00000000E+00  0.00000000E+00  0.00000000E+00
  0.00000000E+00  0.00000000E+00  0.00000000E+00
  0.00000000E+00  0.00000000E+00  0.00000000E+00
  0.00000000E+00  0.00000000E+00  0.00000000E+00
  0.00000000E+00  0.00000000E+00  0.00000000E+00
  0.00000000E+00  0.00000000E+00  0.00000000E+00
  0.00000000E+00  0.00000000E+00  0.00000000E+00
  0.00000000E+00  0.00000000E+00  0.00000000E+00
  0.00000000E+00  0.00000000E+00  0.00000000E+00
  0.00000000E+00  0.00000000E+00  0.00000000E+00
  0.00000000E+00  0.00000000E+00  0.00000000E+00
  0.00000000E+00  0.00000000E+00  0.00000000E+00
  0.00000000E+00  0.00000000E+00  0.00000000E+00
  0.00000000E+00  0.00000000E+00  0.00000000E+00
  0.00000000E+00  0.00000000E+00  0.00000000E+00
  0.00000000E+00  0.00000000E+00  0.00000000E+00
  0.00000000E+00  0.00000000E+00  0.00000000E+00
  0.00000000E+00  0.00000000E+00  0.00000000E+00
  0.00000000E+00  0.00000000E+00  0.00000000E+00
  0.00000000E+00  0.00000000E+00  0.00000000E+00
  0.00000000E+00  0.00000000E+00  0.00000000E+00
  0.00000000E+00  0.00000000E+00  0.00000000E+00
  0.00000000E+00  0.00000000E+00  0.00000000E+00
  0.00000000E+00  0.00000000E+00  0.00000000E+00
  0.00000000E+00  0.00000000E+00  0.00000000E+00
  0.00000000E+00  0.00000000E+00  0.00000000E+00
  0.00000000E+00  0.00000000E+00  0.00000000E+00
  0.00000000E+00  0.00000000E+00  0.00000000E+00
  0.00000000E+00  0.00000000E+00  0.00000000E+00
  0.00000000E+00  0.00000000E+00  0.00000000E+00
  0.00000000E+00  0.00000000E+00  0.00000000E+00
