RuN8                                    
   1.00000000000000     
    17.0990250000000010   -9.8721259999999997    0.0000000000000000
     0.0000000000000000   19.7442530000000005    0.0000000000000000
     0.0000000000000000    0.0000000000000000   20.0000000000000000
   C    N    Ru
   118     8     1
Selective dynamics
Direct
  0.0207435391911472  0.9790104103931057  0.0000000000000000   T   T   T
  0.1036231035392688  0.0198624142059272  0.0000000000000000   T   T   T
  0.1456657264929010  0.9784107141166860  0.0000000000000000   T   T   T
  0.2288310591451136  0.0198670319573024  0.0000000000000000   T   T   T
  0.2707539090974771  0.9782410579213939  0.0000000000000000   T   T   T
  0.3540091940439950  0.0199981724108612  0.0000000000000000   T   T   T
  0.3958797636315982  0.9783092437457361  0.0000000000000000   T   T   T
  0.4791315712333956  0.0209304583608212  0.0000000000000000   T   T   T
  0.5208826664286877  0.9791253617673393  0.0000000000000000   T   T   T
  0.6041340458800915  0.0217473359957088  0.0000000000000000   T   T   T
  0.6460047226211552  0.9800592303899429  0.0000000000000000   T   T   T
  0.7292587297543747  0.0218138462116733  0.0000000000000000   T   T   T
  0.7711813542945053  0.9801877644031175  0.0000000000000000   T   T   T
  0.8543469729041493  0.0216448981611699  0.0000000000000000   T   T   T
  0.8963863584807419  0.9801904482673577  0.0000000000000000   T   T   T
  0.9792659680982797  0.0210430635445803  0.0000000000000000   T   T   T
  0.0202402672689289  0.1041006357821413  0.0000000000000000   T   T   T
  0.1031675215678287  0.1448966082619897  0.0000000000000000   T   T   T
  0.1444666458394267  0.1028108614672659  0.0000000000000000   T   T   T
  0.2271568557270774  0.1439310058959235  0.0000000000000000   T   T   T
  0.2697556337556132  0.1030365376666624  0.0000000000000000   T   T   T
  0.3530742399747531  0.1447433890835333  0.0000000000000000   T   T   T
  0.3950629738280578  0.1034488733824109  0.0000000000000000   T   T   T
  0.4784321147256242  0.1463762356668332  0.0000000000000000   T   T   T
  0.5202622198225568  0.1047192284017660  0.0000000000000000   T   T   T
  0.6035296375913937  0.1474835077146019  0.0000000000000000   T   T   T
  0.6452489740884892  0.1054580198752001  0.0000000000000000   T   T   T
  0.7285671359844395  0.1470525027629481  0.0000000000000000   T   T   T
  0.7704554643631079  0.1051712919985315  0.0000000000000000   T   T   T
  0.8536124722499180  0.1465386263835745  0.0000000000000000   T   T   T
  0.8954435556151679  0.1047396256384357  0.0000000000000000   T   T   T
  0.9784956079254005  0.1458158769841030  0.0000000000000000   T   T   T
  0.0198216425279588  0.2290394826744976  0.0000000000000000   T   T   T
  0.1025586612611648  0.2698189932209662  0.0000000000000000   T   T   T
  0.1439639316708843  0.2280419508465837  0.0000000000000000   T   T   T
  0.2263935202534054  0.2684308237557038  0.0000000000000000   T   T   T
  0.2677362105149410  0.2268330466021763  0.0000000000000000   T   T   T
  0.3938472501574881  0.2277303766767507  0.0000000000000000   T   T   T
  0.4776499462580437  0.2713356353759472  0.0000000000000000   T   T   T
  0.5192335458501752  0.2299685913538820  0.0000000000000000   T   T   T
  0.6026532111447895  0.2738264134924476  0.0000000000000000   T   T   T
  0.6447781702507798  0.2314485037594536  0.0000000000000000   T   T   T
  0.7278558285143143  0.2724009897935397  0.0000000000000000   T   T   T
  0.7698217825490572  0.2303303656667368  0.0000000000000000   T   T   T
  0.8531451518375248  0.2715999410354998  0.0000000000000000   T   T   T
  0.8949898256847540  0.2298347768924303  0.0000000000000000   T   T   T
  0.9782314178069326  0.2710131326978145  0.0000000000000000   T   T   T
  0.0203194236661247  0.3541079533409151  0.0000000000000000   T   T   T
  0.1039096705091441  0.3952785474840597  0.0000000000000000   T   T   T
  0.1452917022259111  0.3530543170229412  0.0000000000000000   T   T   T
  0.2279380989153984  0.3936464082691041  0.0000000000000000   T   T   T
  0.3486059454828040  0.3907331863203440  0.0000000000000000   T   T   T
  0.3903811067883983  0.3486212697251407  0.0000000000000000   T   T   T
  0.5157153327232638  0.3545874736544057  0.0000000000000000   T   T   T
  0.6429582576811725  0.3571214633438842  0.0000000000000000   T   T   T
  0.7264708210176556  0.3978453270775856  0.0000000000000000   T   T   T
  0.7686920198367725  0.3556399222808043  0.0000000000000000   T   T   T
  0.8527314295983202  0.3967033226958938  0.0000000000000000   T   T   T
  0.8947871357470271  0.3548918868255300  0.0000000000000000   T   T   T
  0.9784991992976952  0.3959688031234525  0.0000000000000000   T   T   T
  0.0209598872831190  0.4791813580191635  0.0000000000000000   T   T   T
  0.1046956757255684  0.5203203134945695  0.0000000000000000   T   T   T
  0.1464105858197957  0.4783406918509454  0.0000000000000000   T   T   T
  0.2297859324694797  0.5186864885554444  0.0000000000000000   T   T   T
  0.2714049538238076  0.4770195041121539  0.0000000000000000   T   T   T
  0.3549359359019224  0.5163180119021340  0.0000000000000000   T   T   T
  0.6450804840371285  0.4837421942865050  0.0000000000000000   T   T   T
  0.7286104313286901  0.5230400291751383  0.0000000000000000   T   T   T
  0.7702268808887628  0.4813707491614759  0.0000000000000000   T   T   T
  0.8536027389804508  0.5217160646939870  0.0000000000000000   T   T   T
  0.8953187964909614  0.4797377560323378  0.0000000000000000   T   T   T
  0.9790549501712963  0.5208753487989770  0.0000000000000000   T   T   T
  0.0215145887545381  0.6040882389323040  0.0000000000000000   T   T   T
  0.1052261811234464  0.6451668982935420  0.0000000000000000   T   T   T
  0.1472818081733592  0.6033558211520609  0.0000000000000000   T   T   T
  0.2313219777859445  0.6444183365057016  0.0000000000000000   T   T   T
  0.2735423755875016  0.6022129177585106  0.0000000000000000   T   T   T
  0.3570550759070995  0.6429357271204250  0.0000000000000000   T   T   T
  0.4842964499374823  0.6454687976900420  0.0000000000000000   T   T   T
  0.6096304172125401  0.6514333497794994  0.0000000000000000   T   T   T
  0.6514067445787184  0.6093236847878815  0.0000000000000000   T   T   T
  0.7720761220769402  0.6064108840197513  0.0000000000000000   T   T   T
  0.8547211129578473  0.6470035987402022  0.0000000000000000   T   T   T
  0.8961035739830244  0.6047785349553776  0.0000000000000000   T   T   T
  0.9796935356765996  0.6459484396877878  0.0000000000000000   T   T   T
  0.0217828546957142  0.7290443712027677  0.0000000000000000   T   T   T
  0.1050204116627716  0.7702221695900834  0.0000000000000000   T   T   T
  0.1468681172396211  0.7284582378841136  0.0000000000000000   T   T   T
  0.2301908646103553  0.7697266080229059  0.0000000000000000   T   T   T
  0.2721576742651498  0.7276578315140453  0.0000000000000000   T   T   T
  0.3552357725157190  0.7686105786828539  0.0000000000000000   T   T   T
  0.3973601390109483  0.7262306684211793  0.0000000000000000   T   T   T
  0.4807786847661000  0.7700879354861118  0.0000000000000000   T   T   T
  0.5223617476323559  0.7287208498052513  0.0000000000000000   T   T   T
  0.6061642115854282  0.7723248670745574  0.0000000000000000   T   T   T
  0.7322751916994780  0.7732205347860791  0.0000000000000000   T   T   T
  0.7736169364246600  0.7316227654784609  0.0000000000000000   T   T   T
  0.8560462898684384  0.7720123673758763  0.0000000000000000   T   T   T
  0.8974540504506980  0.7302383996207376  0.0000000000000000   T   T   T
  0.9801925257569586  0.7710186216766647  0.0000000000000000   T   T   T
  0.0215170558974810  0.8542410136064121  0.0000000000000000   T   T   T
  0.1045689143632878  0.8953160261638664  0.0000000000000000   T   T   T
  0.1464003118878206  0.8535183600196662  0.0000000000000000   T   T   T
  0.2295577624418968  0.8948867380840431  0.0000000000000000   T   T   T
  0.2714477303547150  0.8530064587631734  0.0000000000000000   T   T   T
  0.3547653011568713  0.8945993243839776  0.0000000000000000   T   T   T
  0.3964842559146110  0.8525740661608101  0.0000000000000000   T   T   T
  0.4797522353255742  0.8953382047464420  0.0000000000000000   T   T   T
  0.5215828587721201  0.8536804793762381  0.0000000000000000   T   T   T
  0.6049537029143273  0.8966094139740894  0.0000000000000000   T   T   T
  0.6469385617883363  0.8553142952105657  0.0000000000000000   T   T   T
  0.7302574301914851  0.8970185098950397  0.0000000000000000   T   T   T
  0.7728545933908315  0.8561231647775667  0.0000000000000000   T   T   T
  0.8555433927116595  0.8972417951913345  0.0000000000000000   T   T   T
  0.8968423321631289  0.8551571739045708  0.0000000000000000   T   T   T
  0.9797686856007340  0.8959523465618912  0.0000000000000000   T   T   T
  0.3504228388952831  0.2672288737110807  0.0000000000000000   T   T   T
  0.6495901296923001  0.7328284335865071  0.0000000000000000   T   T   T
  0.2672985895886162  0.3501624323633613  0.0000000000000000   T   T   T
  0.4715936204500849  0.3900504272737964  0.0000000000000000   T   T   T
  0.6001479431657656  0.4000184989667769  0.0000000000000000   T   T   T
  0.3893315051227644  0.4711131662955577  0.0000000000000000   T   T   T
  0.6106819659570523  0.5289444193309647  0.0000000000000000   T   T   T
  0.3998657539872439  0.6000397267541248  0.0000000000000000   T   T   T
  0.5284177307344610  0.6100043394769296  0.0000000000000000   T   T   T
  0.7327135938813142  0.6498930373277204  0.0000000000000000   T   T   T
  0.5000062698531920  0.5000275441387643  0.0000000000000000   T   T   T
 
  0.00000000E+00  0.00000000E+00  0.00000000E+00
  0.00000000E+00  0.00000000E+00  0.00000000E+00
  0.00000000E+00  0.00000000E+00  0.00000000E+00
  0.00000000E+00  0.00000000E+00  0.00000000E+00
  0.00000000E+00  0.00000000E+00  0.00000000E+00
  0.00000000E+00  0.00000000E+00  0.00000000E+00
  0.00000000E+00  0.00000000E+00  0.00000000E+00
  0.00000000E+00  0.00000000E+00  0.00000000E+00
  0.00000000E+00  0.00000000E+00  0.00000000E+00
  0.00000000E+00  0.00000000E+00  0.00000000E+00
  0.00000000E+00  0.00000000E+00  0.00000000E+00
  0.00000000E+00  0.00000000E+00  0.00000000E+00
  0.00000000E+00  0.00000000E+00  0.00000000E+00
  0.00000000E+00  0.00000000E+00  0.00000000E+00
  0.00000000E+00  0.00000000E+00  0.00000000E+00
  0.00000000E+00  0.00000000E+00  0.00000000E+00
  0.00000000E+00  0.00000000E+00  0.00000000E+00
  0.00000000E+00  0.00000000E+00  0.00000000E+00
  0.00000000E+00  0.00000000E+00  0.00000000E+00
  0.00000000E+00  0.00000000E+00  0.00000000E+00
  0.00000000E+00  0.00000000E+00  0.00000000E+00
  0.00000000E+00  0.00000000E+00  0.00000000E+00
  0.00000000E+00  0.00000000E+00  0.00000000E+00
  0.00000000E+00  0.00000000E+00  0.00000000E+00
  0.00000000E+00  0.00000000E+00  0.00000000E+00
  0.00000000E+00  0.00000000E+00  0.00000000E+00
  0.00000000E+00  0.00000000E+00  0.00000000E+00
  0.00000000E+00  0.00000000E+00  0.00000000E+00
  0.00000000E+00  0.00000000E+00  0.00000000E+00
  0.00000000E+00  0.00000000E+00  0.00000000E+00
  0.00000000E+00  0.00000000E+00  0.00000000E+00
  0.00000000E+00  0.00000000E+00  0.00000000E+00
  0.00000000E+00  0.00000000E+00  0.00000000E+00
  0.00000000E+00  0.00000000E+00  0.00000000E+00
  0.00000000E+00  0.00000000E+00  0.00000000E+00
  0.00000000E+00  0.00000000E+00  0.00000000E+00
  0.00000000E+00  0.00000000E+00  0.00000000E+00
  0.00000000E+00  0.00000000E+00  0.00000000E+00
  0.00000000E+00  0.00000000E+00  0.00000000E+00
  0.00000000E+00  0.00000000E+00  0.00000000E+00
  0.00000000E+00  0.00000000E+00  0.00000000E+00
  0.00000000E+00  0.00000000E+00  0.00000000E+00
  0.00000000E+00  0.00000000E+00  0.00000000E+00
  0.00000000E+00  0.00000000E+00  0.00000000E+00
  0.00000000E+00  0.00000000E+00  0.00000000E+00
  0.00000000E+00  0.00000000E+00  0.00000000E+00
  0.00000000E+00  0.00000000E+00  0.00000000E+00
  0.00000000E+00  0.00000000E+00  0.00000000E+00
  0.00000000E+00  0.00000000E+00  0.00000000E+00
  0.00000000E+00  0.00000000E+00  0.00000000E+00
  0.00000000E+00  0.00000000E+00  0.00000000E+00
  0.00000000E+00  0.00000000E+00  0.00000000E+00
  0.00000000E+00  0.00000000E+00  0.00000000E+00
  0.00000000E+00  0.00000000E+00  0.00000000E+00
  0.00000000E+00  0.00000000E+00  0.00000000E+00
  0.00000000E+00  0.00000000E+00  0.00000000E+00
  0.00000000E+00  0.00000000E+00  0.00000000E+00
  0.00000000E+00  0.00000000E+00  0.00000000E+00
  0.00000000E+00  0.00000000E+00  0.00000000E+00
  0.00000000E+00  0.00000000E+00  0.00000000E+00
  0.00000000E+00  0.00000000E+00  0.00000000E+00
  0.00000000E+00  0.00000000E+00  0.00000000E+00
  0.00000000E+00  0.00000000E+00  0.00000000E+00
  0.00000000E+00  0.00000000E+00  0.00000000E+00
  0.00000000E+00  0.00000000E+00  0.00000000E+00
  0.00000000E+00  0.00000000E+00  0.00000000E+00
  0.00000000E+00  0.00000000E+00  0.00000000E+00
  0.00000000E+00  0.00000000E+00  0.00000000E+00
  0.00000000E+00  0.00000000E+00  0.00000000E+00
  0.00000000E+00  0.00000000E+00  0.00000000E+00
  0.00000000E+00  0.00000000E+00  0.00000000E+00
  0.00000000E+00  0.00000000E+00  0.00000000E+00
  0.00000000E+00  0.00000000E+00  0.00000000E+00
  0.00000000E+00  0.00000000E+00  0.00000000E+00
  0.00000000E+00  0.00000000E+00  0.00000000E+00
  0.00000000E+00  0.00000000E+00  0.00000000E+00
  0.00000000E+00  0.00000000E+00  0.00000000E+00
  0.00000000E+00  0.00000000E+00  0.00000000E+00
  0.00000000E+00  0.00000000E+00  0.00000000E+00
  0.00000000E+00  0.00000000E+00  0.00000000E+00
  0.00000000E+00  0.00000000E+00  0.00000000E+00
  0.00000000E+00  0.00000000E+00  0.00000000E+00
  0.00000000E+00  0.00000000E+00  0.00000000E+00
  0.00000000E+00  0.00000000E+00  0.00000000E+00
  0.00000000E+00  0.00000000E+00  0.00000000E+00
  0.00000000E+00  0.00000000E+00  0.00000000E+00
  0.00000000E+00  0.00000000E+00  0.00000000E+00
  0.00000000E+00  0.00000000E+00  0.00000000E+00
  0.00000000E+00  0.00000000E+00  0.00000000E+00
  0.00000000E+00  0.00000000E+00  0.00000000E+00
  0.00000000E+00  0.00000000E+00  0.00000000E+00
  0.00000000E+00  0.00000000E+00  0.00000000E+00
  0.00000000E+00  0.00000000E+00  0.00000000E+00
  0.00000000E+00  0.00000000E+00  0.00000000E+00
  0.00000000E+00  0.00000000E+00  0.00000000E+00
  0.00000000E+00  0.00000000E+00  0.00000000E+00
  0.00000000E+00  0.00000000E+00  0.00000000E+00
  0.00000000E+00  0.00000000E+00  0.00000000E+00
  0.00000000E+00  0.00000000E+00  0.00000000E+00
  0.00000000E+00  0.00000000E+00  0.00000000E+00
  0.00000000E+00  0.00000000E+00  0.00000000E+00
  0.00000000E+00  0.00000000E+00  0.00000000E+00
  0.00000000E+00  0.00000000E+00  0.00000000E+00
  0.00000000E+00  0.00000000E+00  0.00000000E+00
  0.00000000E+00  0.00000000E+00  0.00000000E+00
  0.00000000E+00  0.00000000E+00  0.00000000E+00
  0.00000000E+00  0.00000000E+00  0.00000000E+00
  0.00000000E+00  0.00000000E+00  0.00000000E+00
  0.00000000E+00  0.00000000E+00  0.00000000E+00
  0.00000000E+00  0.00000000E+00  0.00000000E+00
  0.00000000E+00  0.00000000E+00  0.00000000E+00
  0.00000000E+00  0.00000000E+00  0.00000000E+00
  0.00000000E+00  0.00000000E+00  0.00000000E+00
  0.00000000E+00  0.00000000E+00  0.00000000E+00
  0.00000000E+00  0.00000000E+00  0.00000000E+00
  0.00000000E+00  0.00000000E+00  0.00000000E+00
  0.00000000E+00  0.00000000E+00  0.00000000E+00
  0.00000000E+00  0.00000000E+00  0.00000000E+00
  0.00000000E+00  0.00000000E+00  0.00000000E+00
  0.00000000E+00  0.00000000E+00  0.00000000E+00
  0.00000000E+00  0.00000000E+00  0.00000000E+00
  0.00000000E+00  0.00000000E+00  0.00000000E+00
  0.00000000E+00  0.00000000E+00  0.00000000E+00
  0.00000000E+00  0.00000000E+00  0.00000000E+00
  0.00000000E+00  0.00000000E+00  0.00000000E+00
  0.00000000E+00  0.00000000E+00  0.00000000E+00
  0.00000000E+00  0.00000000E+00  0.00000000E+00
