RuN10                                   
   1.00000000000000     
    17.0990259999999985   -9.8721239999999995    0.0000000000000000
     0.0000000000000000   19.7442530000000005    0.0000000000000000
     0.0000000000000000    0.0000000000000000   20.0000000000000000
   C    N    Ru
   116    10     1
Selective dynamics
Direct
  0.0209036161678195  0.9791277150844605  0.0000000000000000   T   T   T
  0.1039421475837139  0.0201621518590596  0.0000000000000000   T   T   T
  0.1456390305730809  0.9785361089006154  0.0000000000000000   T   T   T
  0.2289840327234043  0.0202216334081440  0.0000000000000000   T   T   T
  0.2709074813001480  0.9785003402525911  0.0000000000000000   T   T   T
  0.3540109509689401  0.0204050520049417  0.0000000000000000   T   T   T
  0.3958868363394232  0.9785059706803486  0.0000000000000000   T   T   T
  0.4791499754766420  0.0209846415328713  0.0000000000000000   T   T   T
  0.5208632156276711  0.9790706493048335  0.0000000000000000   T   T   T
  0.6041261490146534  0.0215505197361315  0.0000000000000000   T   T   T
  0.6460017227577853  0.9796525237925411  0.0000000000000000   T   T   T
  0.7291053944259192  0.0215575426918338  0.0000000000000000   T   T   T
  0.7710260773476284  0.9798340938448821  0.0000000000000000   T   T   T
  0.8543708252476936  0.0215175999553318  0.0000000000000000   T   T   T
  0.8960677285268172  0.9798909844175439  0.0000000000000000   T   T   T
  0.9791065150191156  0.0209242085738599  0.0000000000000000   T   T   T
  0.0201403362814678  0.1039630633439365  0.0000000000000000   T   T   T
  0.1033089917812657  0.1448621548643605  0.0000000000000000   T   T   T
  0.1448399953410271  0.1033308298487669  0.0000000000000000   T   T   T
  0.2278613893976364  0.1447174673643680  0.0000000000000000   T   T   T
  0.2697278157899646  0.1030087415616861  0.0000000000000000   T   T   T
  0.3530155147879087  0.1452958914456926  0.0000000000000000   T   T   T
  0.3952223355855325  0.1039958880117981  0.0000000000000000   T   T   T
  0.4784520656893333  0.1464712975294485  0.0000000000000000   T   T   T
  0.5203339535485694  0.1047689177264632  0.0000000000000000   T   T   T
  0.6034600319524762  0.1473907724603222  0.0000000000000000   T   T   T
  0.6452045725544348  0.1052436861314026  0.0000000000000000   T   T   T
  0.7285141882062360  0.1469348348205400  0.0000000000000000   T   T   T
  0.7703504345822189  0.1049973392480365  0.0000000000000000   T   T   T
  0.8535622800024368  0.1464725298813685  0.0000000000000000   T   T   T
  0.8954601810810300  0.1045718300631307  0.0000000000000000   T   T   T
  0.9785141795206306  0.1456601711407767  0.0000000000000000   T   T   T
  0.0201982319065884  0.2290056444989005  0.0000000000000000   T   T   T
  0.1029852245900201  0.2697499964297497  0.0000000000000000   T   T   T
  0.1446945514039976  0.2278837172821224  0.0000000000000000   T   T   T
  0.2272098118506851  0.2685360614204746  0.0000000000000000   T   T   T
  0.2685133996583708  0.2272331504601932  0.0000000000000000   T   T   T
  0.3934933071656838  0.2281442999684966  0.0000000000000000   T   T   T
  0.4768911541640274  0.2712537980838051  0.0000000000000000   T   T   T
  0.5185862675019937  0.2298762975866435  0.0000000000000000   T   T   T
  0.6021695797455056  0.2738026632257434  0.0000000000000000   T   T   T
  0.6444353731951780  0.2314439306696920  0.0000000000000000   T   T   T
  0.7276224297881619  0.2724152972273075  0.0000000000000000   T   T   T
  0.7697432322237380  0.2302923394362451  0.0000000000000000   T   T   T
  0.8531016544535774  0.2715218928391202  0.0000000000000000   T   T   T
  0.8950413718125469  0.2296862384551685  0.0000000000000000   T   T   T
  0.9784774501503504  0.2709289125251495  0.0000000000000000   T   T   T
  0.0203825604338928  0.3540335674441951  0.0000000000000000   T   T   T
  0.1039732980388773  0.3952454330331177  0.0000000000000000   T   T   T
  0.1452729924670255  0.3530380850447457  0.0000000000000000   T   T   T
  0.2281210992301046  0.3935183642800569  0.0000000000000000   T   T   T
  0.3489960270722275  0.3899672047771633  0.0000000000000000   T   T   T
  0.3899461748562082  0.3490174292013011  0.0000000000000000   T   T   T
  0.5156484961081372  0.3551067846705697  0.0000000000000000   T   T   T
  0.6427533832591705  0.3572832590225047  0.0000000000000000   T   T   T
  0.7262339146453928  0.3978667057277195  0.0000000000000000   T   T   T
  0.7685949145707991  0.3556028564376427  0.0000000000000000   T   T   T
  0.8526474098527793  0.3965785770142859  0.0000000000000000   T   T   T
  0.8947923873758540  0.3548316949458974  0.0000000000000000   T   T   T
  0.9784851943613723  0.3959094951822342  0.0000000000000000   T   T   T
  0.0209657699788787  0.4791732836173371  0.0000000000000000   T   T   T
  0.1047497399260067  0.5203582344841116  0.0000000000000000   T   T   T
  0.1464518224373143  0.4784775964701489  0.0000000000000000   T   T   T
  0.2298560801059371  0.5186088732785616  0.0000000000000000   T   T   T
  0.2712329254625768  0.4769145200867206  0.0000000000000000   T   T   T
  0.3550862749262945  0.5156695915947633  0.0000000000000000   T   T   T
  0.6449269153944119  0.4843853512574799  0.0000000000000000   T   T   T
  0.7287803923860272  0.5231426744584484  0.0000000000000000   T   T   T
  0.7701587393369854  0.4814494775260643  0.0000000000000000   T   T   T
  0.8535638660201532  0.5215839689425846  0.0000000000000000   T   T   T
  0.8952667968026926  0.4797029445903125  0.0000000000000000   T   T   T
  0.9790505592373041  0.5208854044361947  0.0000000000000000   T   T   T
  0.0215297830313053  0.6041480632725996  0.0000000000000000   T   T   T
  0.1052225926367791  0.6452273529266558  0.0000000000000000   T   T   T
  0.1473712070724499  0.6034840017203129  0.0000000000000000   T   T   T
  0.2314237628434370  0.6444585028114498  0.0000000000000000   T   T   T
  0.2737820737382724  0.6021915133382478  0.0000000000000000   T   T   T
  0.3572615104937970  0.6427745793210119  0.0000000000000000   T   T   T
  0.4843644358715185  0.6449481490251661  0.0000000000000000   T   T   T
  0.6100656492608654  0.6510361458841013  0.0000000000000000   T   T   T
  0.6510154437527469  0.6100861252201824  0.0000000000000000   T   T   T
  0.7718892374699268  0.6065409422152078  0.0000000000000000   T   T   T
  0.8547388864285201  0.6470187615378420  0.0000000000000000   T   T   T
  0.8960396493598447  0.6048134195613341  0.0000000000000000   T   T   T
  0.9796310389827589  0.6460238484390257  0.0000000000000000   T   T   T
  0.0215361973881811  0.7291271260936498  0.0000000000000000   T   T   T
  0.1049735976003945  0.7703711828188893  0.0000000000000000   T   T   T
  0.1469134525935005  0.7285365493730659  0.0000000000000000   T   T   T
  0.2302711432073866  0.7697652121026162  0.0000000000000000   T   T   T
  0.2723935682268664  0.7276455361461576  0.0000000000000000   T   T   T
  0.3555811532418213  0.7686167294904820  0.0000000000000000   T   T   T
  0.3978448688298318  0.7262548293878505  0.0000000000000000   T   T   T
  0.4814270975925413  0.7701798485518208  0.0000000000000000   T   T   T
  0.5231211457587898  0.7288017868533035  0.0000000000000000   T   T   T
  0.6065155923192950  0.7719118877150484  0.0000000000000000   T   T   T
  0.7314968478693898  0.7728220825961624  0.0000000000000000   T   T   T
  0.7728005487072265  0.7315189404018942  0.0000000000000000   T   T   T
  0.8553154011026158  0.7721706087423665  0.0000000000000000   T   T   T
  0.8970247136677045  0.7303050590967225  0.0000000000000000   T   T   T
  0.9798125376076674  0.7710491904149175  0.0000000000000000   T   T   T
  0.0214964962185909  0.8543930088000398  0.0000000000000000   T   T   T
  0.1045510250544490  0.8954815535708615  0.0000000000000000   T   T   T
  0.1464513840787685  0.8535840153003630  0.0000000000000000   T   T   T
  0.2296654090558580  0.8950632604965576  0.0000000000000000   T   T   T
  0.2715002014231265  0.8531235053771156  0.0000000000000000   T   T   T
  0.3548088296416466  0.8948139798042780  0.0000000000000000   T   T   T
  0.3965556582833223  0.8526679035280519  0.0000000000000000   T   T   T
  0.4796797296847413  0.8952872100492643  0.0000000000000000   T   T   T
  0.5215618563242744  0.8535855260428022  0.0000000000000000   T   T   T
  0.6047905600734261  0.8960614831468356  0.0000000000000000   T   T   T
  0.6469958527585321  0.8547601804696006  0.0000000000000000   T   T   T
  0.7302824944008292  0.8970466732848500  0.0000000000000000   T   T   T
  0.7721484251454516  0.8553369434603479  0.0000000000000000   T   T   T
  0.8551694925689068  0.8967223527385358  0.0000000000000000   T   T   T
  0.8967007134549737  0.8551913696755685  0.0000000000000000   T   T   T
  0.9798699812649734  0.8960892458556777  0.0000000000000000   T   T   T
  0.3506337924973255  0.2668103874724241  0.0000000000000000   T   T   T
  0.2667879117197758  0.3506567497248686  0.0000000000000000   T   T   T
  0.4712890592496560  0.3895941036914615  0.0000000000000000   T   T   T
  0.5998228961750116  0.4002126161916303  0.0000000000000000   T   T   T
  0.3895732962641979  0.4713098288174317  0.0000000000000000   T   T   T
  0.6104392275976541  0.5287441376830037  0.0000000000000000   T   T   T
  0.4001916634767026  0.5998440478263337  0.0000000000000000   T   T   T
  0.5287236591756197  0.6104603447717862  0.0000000000000000   T   T   T
  0.7332229462705602  0.6493987811510130  0.0000000000000000   T   T   T
  0.6493765154641901  0.7332443414792273  0.0000000000000000   T   T   T
  0.5000060469226701  0.5000267054167842  0.0000000000000000   T   T   T
 
  0.00000000E+00  0.00000000E+00  0.00000000E+00
  0.00000000E+00  0.00000000E+00  0.00000000E+00
  0.00000000E+00  0.00000000E+00  0.00000000E+00
  0.00000000E+00  0.00000000E+00  0.00000000E+00
  0.00000000E+00  0.00000000E+00  0.00000000E+00
  0.00000000E+00  0.00000000E+00  0.00000000E+00
  0.00000000E+00  0.00000000E+00  0.00000000E+00
  0.00000000E+00  0.00000000E+00  0.00000000E+00
  0.00000000E+00  0.00000000E+00  0.00000000E+00
  0.00000000E+00  0.00000000E+00  0.00000000E+00
  0.00000000E+00  0.00000000E+00  0.00000000E+00
  0.00000000E+00  0.00000000E+00  0.00000000E+00
  0.00000000E+00  0.00000000E+00  0.00000000E+00
  0.00000000E+00  0.00000000E+00  0.00000000E+00
  0.00000000E+00  0.00000000E+00  0.00000000E+00
  0.00000000E+00  0.00000000E+00  0.00000000E+00
  0.00000000E+00  0.00000000E+00  0.00000000E+00
  0.00000000E+00  0.00000000E+00  0.00000000E+00
  0.00000000E+00  0.00000000E+00  0.00000000E+00
  0.00000000E+00  0.00000000E+00  0.00000000E+00
  0.00000000E+00  0.00000000E+00  0.00000000E+00
  0.00000000E+00  0.00000000E+00  0.00000000E+00
  0.00000000E+00  0.00000000E+00  0.00000000E+00
  0.00000000E+00  0.00000000E+00  0.00000000E+00
  0.00000000E+00  0.00000000E+00  0.00000000E+00
  0.00000000E+00  0.00000000E+00  0.00000000E+00
  0.00000000E+00  0.00000000E+00  0.00000000E+00
  0.00000000E+00  0.00000000E+00  0.00000000E+00
  0.00000000E+00  0.00000000E+00  0.00000000E+00
  0.00000000E+00  0.00000000E+00  0.00000000E+00
  0.00000000E+00  0.00000000E+00  0.00000000E+00
  0.00000000E+00  0.00000000E+00  0.00000000E+00
  0.00000000E+00  0.00000000E+00  0.00000000E+00
  0.00000000E+00  0.00000000E+00  0.00000000E+00
  0.00000000E+00  0.00000000E+00  0.00000000E+00
  0.00000000E+00  0.00000000E+00  0.00000000E+00
  0.00000000E+00  0.00000000E+00  0.00000000E+00
  0.00000000E+00  0.00000000E+00  0.00000000E+00
  0.00000000E+00  0.00000000E+00  0.00000000E+00
  0.00000000E+00  0.00000000E+00  0.00000000E+00
  0.00000000E+00  0.00000000E+00  0.00000000E+00
  0.00000000E+00  0.00000000E+00  0.00000000E+00
  0.00000000E+00  0.00000000E+00  0.00000000E+00
  0.00000000E+00  0.00000000E+00  0.00000000E+00
  0.00000000E+00  0.00000000E+00  0.00000000E+00
  0.00000000E+00  0.00000000E+00  0.00000000E+00
  0.00000000E+00  0.00000000E+00  0.00000000E+00
  0.00000000E+00  0.00000000E+00  0.00000000E+00
  0.00000000E+00  0.00000000E+00  0.00000000E+00
  0.00000000E+00  0.00000000E+00  0.00000000E+00
  0.00000000E+00  0.00000000E+00  0.00000000E+00
  0.00000000E+00  0.00000000E+00  0.00000000E+00
  0.00000000E+00  0.00000000E+00  0.00000000E+00
  0.00000000E+00  0.00000000E+00  0.00000000E+00
  0.00000000E+00  0.00000000E+00  0.00000000E+00
  0.00000000E+00  0.00000000E+00  0.00000000E+00
  0.00000000E+00  0.00000000E+00  0.00000000E+00
  0.00000000E+00  0.00000000E+00  0.00000000E+00
  0.00000000E+00  0.00000000E+00  0.00000000E+00
  0.00000000E+00  0.00000000E+00  0.00000000E+00
  0.00000000E+00  0.00000000E+00  0.00000000E+00
  0.00000000E+00  0.00000000E+00  0.00000000E+00
  0.00000000E+00  0.00000000E+00  0.00000000E+00
  0.00000000E+00  0.00000000E+00  0.00000000E+00
  0.00000000E+00  0.00000000E+00  0.00000000E+00
  0.00000000E+00  0.00000000E+00  0.00000000E+00
  0.00000000E+00  0.00000000E+00  0.00000000E+00
  0.00000000E+00  0.00000000E+00  0.00000000E+00
  0.00000000E+00  0.00000000E+00  0.00000000E+00
  0.00000000E+00  0.00000000E+00  0.00000000E+00
  0.00000000E+00  0.00000000E+00  0.00000000E+00
  0.00000000E+00  0.00000000E+00  0.00000000E+00
  0.00000000E+00  0.00000000E+00  0.00000000E+00
  0.00000000E+00  0.00000000E+00  0.00000000E+00
  0.00000000E+00  0.00000000E+00  0.00000000E+00
  0.00000000E+00  0.00000000E+00  0.00000000E+00
  0.00000000E+00  0.00000000E+00  0.00000000E+00
  0.00000000E+00  0.00000000E+00  0.00000000E+00
  0.00000000E+00  0.00000000E+00  0.00000000E+00
  0.00000000E+00  0.00000000E+00  0.00000000E+00
  0.00000000E+00  0.00000000E+00  0.00000000E+00
  0.00000000E+00  0.00000000E+00  0.00000000E+00
  0.00000000E+00  0.00000000E+00  0.00000000E+00
  0.00000000E+00  0.00000000E+00  0.00000000E+00
  0.00000000E+00  0.00000000E+00  0.00000000E+00
  0.00000000E+00  0.00000000E+00  0.00000000E+00
  0.00000000E+00  0.00000000E+00  0.00000000E+00
  0.00000000E+00  0.00000000E+00  0.00000000E+00
  0.00000000E+00  0.00000000E+00  0.00000000E+00
  0.00000000E+00  0.00000000E+00  0.00000000E+00
  0.00000000E+00  0.00000000E+00  0.00000000E+00
  0.00000000E+00  0.00000000E+00  0.00000000E+00
  0.00000000E+00  0.00000000E+00  0.00000000E+00
  0.00000000E+00  0.00000000E+00  0.00000000E+00
  0.00000000E+00  0.00000000E+00  0.00000000E+00
  0.00000000E+00  0.00000000E+00  0.00000000E+00
  0.00000000E+00  0.00000000E+00  0.00000000E+00
  0.00000000E+00  0.00000000E+00  0.00000000E+00
  0.00000000E+00  0.00000000E+00  0.00000000E+00
  0.00000000E+00  0.00000000E+00  0.00000000E+00
  0.00000000E+00  0.00000000E+00  0.00000000E+00
  0.00000000E+00  0.00000000E+00  0.00000000E+00
  0.00000000E+00  0.00000000E+00  0.00000000E+00
  0.00000000E+00  0.00000000E+00  0.00000000E+00
  0.00000000E+00  0.00000000E+00  0.00000000E+00
  0.00000000E+00  0.00000000E+00  0.00000000E+00
  0.00000000E+00  0.00000000E+00  0.00000000E+00
  0.00000000E+00  0.00000000E+00  0.00000000E+00
  0.00000000E+00  0.00000000E+00  0.00000000E+00
  0.00000000E+00  0.00000000E+00  0.00000000E+00
  0.00000000E+00  0.00000000E+00  0.00000000E+00
  0.00000000E+00  0.00000000E+00  0.00000000E+00
  0.00000000E+00  0.00000000E+00  0.00000000E+00
  0.00000000E+00  0.00000000E+00  0.00000000E+00
  0.00000000E+00  0.00000000E+00  0.00000000E+00
  0.00000000E+00  0.00000000E+00  0.00000000E+00
  0.00000000E+00  0.00000000E+00  0.00000000E+00
  0.00000000E+00  0.00000000E+00  0.00000000E+00
  0.00000000E+00  0.00000000E+00  0.00000000E+00
  0.00000000E+00  0.00000000E+00  0.00000000E+00
  0.00000000E+00  0.00000000E+00  0.00000000E+00
  0.00000000E+00  0.00000000E+00  0.00000000E+00
  0.00000000E+00  0.00000000E+00  0.00000000E+00
  0.00000000E+00  0.00000000E+00  0.00000000E+00
  0.00000000E+00  0.00000000E+00  0.00000000E+00
  0.00000000E+00  0.00000000E+00  0.00000000E+00
  0.00000000E+00  0.00000000E+00  0.00000000E+00
