RuN12                                   
   1.00000000000000     
    17.0990250000000010   -9.8721259999999997    0.0000000000000000
     0.0000000000000000   19.7442530000000005    0.0000000000000000
     0.0000000000000000    0.0000000000000000   20.0000000000000000
   C    N    Ru
   114    12     1
Selective dynamics
Direct
  0.0209129086756530  0.9790854067907508  0.0000000000000000   T   T   T
  0.1039835574445603  0.0202073293927867  0.0000000000000000   T   T   T
  0.1456666958935861  0.9785230223583838  0.0000000000000000   T   T   T
  0.2290060115459012  0.0202916875593655  0.0000000000000000   T   T   T
  0.2709166755028589  0.9784557230891192  0.0000000000000000   T   T   T
  0.3540236320007786  0.0203973786209076  0.0000000000000000   T   T   T
  0.3958385061638501  0.9784887114531814  0.0000000000000000   T   T   T
  0.4792010524088569  0.0210423201065273  0.0000000000000000   T   T   T
  0.5208124141175215  0.9790141123758114  0.0000000000000000   T   T   T
  0.6041746542532075  0.0215671455129679  0.0000000000000000   T   T   T
  0.6459893590848217  0.9796591063688277  0.0000000000000000   T   T   T
  0.7290972478033050  0.0216061259226629  0.0000000000000000   T   T   T
  0.7710050873883378  0.9797654770898570  0.0000000000000000   T   T   T
  0.8543441335632541  0.0215318190052537  0.0000000000000000   T   T   T
  0.8960290099403442  0.9798511923136429  0.0000000000000000   T   T   T
  0.9790979339345545  0.0209666732742051  0.0000000000000000   T   T   T
  0.0201860031515419  0.1040129358921169  0.0000000000000000   T   T   T
  0.1033702333283037  0.1450819809278083  0.0000000000000000   T   T   T
  0.1449980103167335  0.1034674628402979  0.0000000000000000   T   T   T
  0.2279232039712541  0.1449435283771019  0.0000000000000000   T   T   T
  0.2697878764832044  0.1031874865149716  0.0000000000000000   T   T   T
  0.3531816518198457  0.1454945827822073  0.0000000000000000   T   T   T
  0.3952075847025684  0.1040425525964736  0.0000000000000000   T   T   T
  0.4785179345784453  0.1466121877558384  0.0000000000000000   T   T   T
  0.5203617281731111  0.1047340747666680  0.0000000000000000   T   T   T
  0.6034972553361937  0.1474709053481803  0.0000000000000000   T   T   T
  0.6452503764027832  0.1052671241567812  0.0000000000000000   T   T   T
  0.7285378637668888  0.1470584196803075  0.0000000000000000   T   T   T
  0.7703129928901503  0.1050348641538838  0.0000000000000000   T   T   T
  0.8536153592882317  0.1464919313789898  0.0000000000000000   T   T   T
  0.8955167340687141  0.1046926627588767  0.0000000000000000   T   T   T
  0.9786749719977557  0.1458768651091573  0.0000000000000000   T   T   T
  0.0203620403460450  0.2292423915382477  0.0000000000000000   T   T   T
  0.1033879966473303  0.2701901576992457  0.0000000000000000   T   T   T
  0.1446808046900153  0.2280304041760586  0.0000000000000000   T   T   T
  0.2272667911048416  0.2690332969411657  0.0000000000000000   T   T   T
  0.2686912260214416  0.2277903884971725  0.0000000000000000   T   T   T
  0.3938585217520904  0.2283489847859738  0.0000000000000000   T   T   T
  0.4772546077796845  0.2717085607850476  0.0000000000000000   T   T   T
  0.5187243813110863  0.2297815422509846  0.0000000000000000   T   T   T
  0.6022703957318662  0.2739084761423417  0.0000000000000000   T   T   T
  0.6445335270685976  0.2314953670695469  0.0000000000000000   T   T   T
  0.7277381995485269  0.2727505330008813  0.0000000000000000   T   T   T
  0.7698078686400213  0.2305728436076843  0.0000000000000000   T   T   T
  0.8531412298006988  0.2716060199375050  0.0000000000000000   T   T   T
  0.8950611944262952  0.2297106088132560  0.0000000000000000   T   T   T
  0.9784700482227479  0.2709389215702083  0.0000000000000000   T   T   T
  0.0205012726000206  0.3541338147868942  0.0000000000000000   T   T   T
  0.1037964859999951  0.3950227566868643  0.0000000000000000   T   T   T
  0.1455808830414705  0.3536590522749973  0.0000000000000000   T   T   T
  0.2283136590936364  0.3939006197743218  0.0000000000000000   T   T   T
  0.3493718384429101  0.3903380741297989  0.0000000000000000   T   T   T
  0.3902530233329645  0.3490288009259491  0.0000000000000000   T   T   T
  0.5161041449739003  0.3552859127512535  0.0000000000000000   T   T   T
  0.6425982377136452  0.3571799727072819  0.0000000000000000   T   T   T
  0.7262142563882230  0.3985460624028073  0.0000000000000000   T   T   T
  0.7687424224500722  0.3561312053202903  0.0000000000000000   T   T   T
  0.8526055338772147  0.3967376810942265  0.0000000000000000   T   T   T
  0.8948954953778393  0.3548988084039469  0.0000000000000000   T   T   T
  0.9784735843366409  0.3959418350748098  0.0000000000000000   T   T   T
  0.0210745923099469  0.4792141600675931  0.0000000000000000   T   T   T
  0.1050792316029961  0.5204118847283371  0.0000000000000000   T   T   T
  0.1471619188277606  0.4784504762110497  0.0000000000000000   T   T   T
  0.2298518191308237  0.5185717251913906  0.0000000000000000   T   T   T
  0.3550347695249629  0.5155547601446047  0.0000000000000000   T   T   T
  0.6449770711471212  0.4845013005955000  0.0000000000000000   T   T   T
  0.7701611127195080  0.4814832476299462  0.0000000000000000   T   T   T
  0.8528524257269585  0.5216066748536063  0.0000000000000000   T   T   T
  0.8949385017099266  0.4796500741616174  0.0000000000000000   T   T   T
  0.9789420541141700  0.5208427010334495  0.0000000000000000   T   T   T
  0.0215413479295452  0.6041151869514015  0.0000000000000000   T   T   T
  0.1051190418153222  0.6451605160477808  0.0000000000000000   T   T   T
  0.1474103481590361  0.6033228669906803  0.0000000000000000   T   T   T
  0.2312735907919543  0.6439289362590740  0.0000000000000000   T   T   T
  0.2737980457716667  0.6015100190156213  0.0000000000000000   T   T   T
  0.3574133416345353  0.6428746695766723  0.0000000000000000   T   T   T
  0.4839094890941624  0.6447698640653471  0.0000000000000000   T   T   T
  0.6097574921030133  0.6510252322174030  0.0000000000000000   T   T   T
  0.6506397100783577  0.6097190832355979  0.0000000000000000   T   T   T
  0.7716989515430864  0.6061549497918705  0.0000000000000000   T   T   T
  0.8544325219102163  0.6463961414624686  0.0000000000000000   T   T   T
  0.8962173933729441  0.6050343931736089  0.0000000000000000   T   T   T
  0.9795140898560583  0.6459233282768845  0.0000000000000000   T   T   T
  0.0215443539776054  0.7291176991009032  0.0000000000000000   T   T   T
  0.1049546468255712  0.7703496555562938  0.0000000000000000   T   T   T
  0.1468724158796108  0.7284518830781407  0.0000000000000000   T   T   T
  0.2302059508534649  0.7694865724666144  0.0000000000000000   T   T   T
  0.2722782447149472  0.7273107359519626  0.0000000000000000   T   T   T
  0.3554821445323589  0.7685646976670483  0.0000000000000000   T   T   T
  0.3977425552782266  0.7261469541370831  0.0000000000000000   T   T   T
  0.4812889885080734  0.7702730489440601  0.0000000000000000   T   T   T
  0.5227597334535792  0.7283473325719934  0.0000000000000000   T   T   T
  0.6061557790489074  0.7717076039291337  0.0000000000000000   T   T   T
  0.7313200393573371  0.7722644619509755  0.0000000000000000   T   T   T
  0.7727458616727807  0.7310223952133307  0.0000000000000000   T   T   T
  0.8553299478869880  0.7720224253269321  0.0000000000000000   T   T   T
  0.8966238898515939  0.7298632046780248  0.0000000000000000   T   T   T
  0.9796499340827837  0.7708120567076755  0.0000000000000000   T   T   T
  0.0213378745619790  0.8541808068346686  0.0000000000000000   T   T   T
  0.1044937090070061  0.8953642140650637  0.0000000000000000   T   T   T
  0.1463984146541048  0.8535675201502457  0.0000000000000000   T   T   T
  0.2297025638964655  0.8950280619784164  0.0000000000000000   T   T   T
  0.2714752133567352  0.8530030085460047  0.0000000000000000   T   T   T
  0.3547618747303198  0.8947901851428184  0.0000000000000000   T   T   T
  0.3965175618442022  0.8525891946348316  0.0000000000000000   T   T   T
  0.4796523777801851  0.8953224018746589  0.0000000000000000   T   T   T
  0.5214933076726226  0.8534419160862278  0.0000000000000000   T   T   T
  0.6048047717577256  0.8960131130278721  0.0000000000000000   T   T   T
  0.6468294312074045  0.8545601808102389  0.0000000000000000   T   T   T
  0.7302215807696705  0.8968688655282868  0.0000000000000000   T   T   T
  0.7720874393229628  0.8551111530949624  0.0000000000000000   T   T   T
  0.8550129154439596  0.8965885019150803  0.0000000000000000   T   T   T
  0.8966387722332322  0.8549714695547732  0.0000000000000000   T   T   T
  0.9798221745146583  0.8960388366986242  0.0000000000000000   T   T   T
  0.2714220544172543  0.4766628553060904  0.0000000000000000   T   T   T
  0.7285905438615022  0.5233928775087002  0.0000000000000000   T   T   T
  0.3507924941638031  0.2672703468101996  0.0000000000000000   T   T   T
  0.2668347108827001  0.3515569915606039  0.0000000000000000   T   T   T
  0.4713726597970208  0.3898544389256031  0.0000000000000000   T   T   T
  0.6005562610310520  0.4006251475102995  0.0000000000000000   T   T   T
  0.3888873624654225  0.4712202862776525  0.0000000000000000   T   T   T
  0.6111242757294791  0.5288358008698826  0.0000000000000000   T   T   T
  0.3994564196667630  0.5994305974785389  0.0000000000000000   T   T   T
  0.5286380451436239  0.6101986843283389  0.0000000000000000   T   T   T
  0.7331769208882748  0.6484989120597610  0.0000000000000000   T   T   T
  0.6492186264748476  0.7327842312000084  0.0000000000000000   T   T   T
  0.5000059652101297  0.5000265918372065  0.0000000000000000   T   T   T
 
  0.00000000E+00  0.00000000E+00  0.00000000E+00
  0.00000000E+00  0.00000000E+00  0.00000000E+00
  0.00000000E+00  0.00000000E+00  0.00000000E+00
  0.00000000E+00  0.00000000E+00  0.00000000E+00
  0.00000000E+00  0.00000000E+00  0.00000000E+00
  0.00000000E+00  0.00000000E+00  0.00000000E+00
  0.00000000E+00  0.00000000E+00  0.00000000E+00
  0.00000000E+00  0.00000000E+00  0.00000000E+00
  0.00000000E+00  0.00000000E+00  0.00000000E+00
  0.00000000E+00  0.00000000E+00  0.00000000E+00
  0.00000000E+00  0.00000000E+00  0.00000000E+00
  0.00000000E+00  0.00000000E+00  0.00000000E+00
  0.00000000E+00  0.00000000E+00  0.00000000E+00
  0.00000000E+00  0.00000000E+00  0.00000000E+00
  0.00000000E+00  0.00000000E+00  0.00000000E+00
  0.00000000E+00  0.00000000E+00  0.00000000E+00
  0.00000000E+00  0.00000000E+00  0.00000000E+00
  0.00000000E+00  0.00000000E+00  0.00000000E+00
  0.00000000E+00  0.00000000E+00  0.00000000E+00
  0.00000000E+00  0.00000000E+00  0.00000000E+00
  0.00000000E+00  0.00000000E+00  0.00000000E+00
  0.00000000E+00  0.00000000E+00  0.00000000E+00
  0.00000000E+00  0.00000000E+00  0.00000000E+00
  0.00000000E+00  0.00000000E+00  0.00000000E+00
  0.00000000E+00  0.00000000E+00  0.00000000E+00
  0.00000000E+00  0.00000000E+00  0.00000000E+00
  0.00000000E+00  0.00000000E+00  0.00000000E+00
  0.00000000E+00  0.00000000E+00  0.00000000E+00
  0.00000000E+00  0.00000000E+00  0.00000000E+00
  0.00000000E+00  0.00000000E+00  0.00000000E+00
  0.00000000E+00  0.00000000E+00  0.00000000E+00
  0.00000000E+00  0.00000000E+00  0.00000000E+00
  0.00000000E+00  0.00000000E+00  0.00000000E+00
  0.00000000E+00  0.00000000E+00  0.00000000E+00
  0.00000000E+00  0.00000000E+00  0.00000000E+00
  0.00000000E+00  0.00000000E+00  0.00000000E+00
  0.00000000E+00  0.00000000E+00  0.00000000E+00
  0.00000000E+00  0.00000000E+00  0.00000000E+00
  0.00000000E+00  0.00000000E+00  0.00000000E+00
  0.00000000E+00  0.00000000E+00  0.00000000E+00
  0.00000000E+00  0.00000000E+00  0.00000000E+00
  0.00000000E+00  0.00000000E+00  0.00000000E+00
  0.00000000E+00  0.00000000E+00  0.00000000E+00
  0.00000000E+00  0.00000000E+00  0.00000000E+00
  0.00000000E+00  0.00000000E+00  0.00000000E+00
  0.00000000E+00  0.00000000E+00  0.00000000E+00
  0.00000000E+00  0.00000000E+00  0.00000000E+00
  0.00000000E+00  0.00000000E+00  0.00000000E+00
  0.00000000E+00  0.00000000E+00  0.00000000E+00
  0.00000000E+00  0.00000000E+00  0.00000000E+00
  0.00000000E+00  0.00000000E+00  0.00000000E+00
  0.00000000E+00  0.00000000E+00  0.00000000E+00
  0.00000000E+00  0.00000000E+00  0.00000000E+00
  0.00000000E+00  0.00000000E+00  0.00000000E+00
  0.00000000E+00  0.00000000E+00  0.00000000E+00
  0.00000000E+00  0.00000000E+00  0.00000000E+00
  0.00000000E+00  0.00000000E+00  0.00000000E+00
  0.00000000E+00  0.00000000E+00  0.00000000E+00
  0.00000000E+00  0.00000000E+00  0.00000000E+00
  0.00000000E+00  0.00000000E+00  0.00000000E+00
  0.00000000E+00  0.00000000E+00  0.00000000E+00
  0.00000000E+00  0.00000000E+00  0.00000000E+00
  0.00000000E+00  0.00000000E+00  0.00000000E+00
  0.00000000E+00  0.00000000E+00  0.00000000E+00
  0.00000000E+00  0.00000000E+00  0.00000000E+00
  0.00000000E+00  0.00000000E+00  0.00000000E+00
  0.00000000E+00  0.00000000E+00  0.00000000E+00
  0.00000000E+00  0.00000000E+00  0.00000000E+00
  0.00000000E+00  0.00000000E+00  0.00000000E+00
  0.00000000E+00  0.00000000E+00  0.00000000E+00
  0.00000000E+00  0.00000000E+00  0.00000000E+00
  0.00000000E+00  0.00000000E+00  0.00000000E+00
  0.00000000E+00  0.00000000E+00  0.00000000E+00
  0.00000000E+00  0.00000000E+00  0.00000000E+00
  0.00000000E+00  0.00000000E+00  0.00000000E+00
  0.00000000E+00  0.00000000E+00  0.00000000E+00
  0.00000000E+00  0.00000000E+00  0.00000000E+00
  0.00000000E+00  0.00000000E+00  0.00000000E+00
  0.00000000E+00  0.00000000E+00  0.00000000E+00
  0.00000000E+00  0.00000000E+00  0.00000000E+00
  0.00000000E+00  0.00000000E+00  0.00000000E+00
  0.00000000E+00  0.00000000E+00  0.00000000E+00
  0.00000000E+00  0.00000000E+00  0.00000000E+00
  0.00000000E+00  0.00000000E+00  0.00000000E+00
  0.00000000E+00  0.00000000E+00  0.00000000E+00
  0.00000000E+00  0.00000000E+00  0.00000000E+00
  0.00000000E+00  0.00000000E+00  0.00000000E+00
  0.00000000E+00  0.00000000E+00  0.00000000E+00
  0.00000000E+00  0.00000000E+00  0.00000000E+00
  0.00000000E+00  0.00000000E+00  0.00000000E+00
  0.00000000E+00  0.00000000E+00  0.00000000E+00
  0.00000000E+00  0.00000000E+00  0.00000000E+00
  0.00000000E+00  0.00000000E+00  0.00000000E+00
  0.00000000E+00  0.00000000E+00  0.00000000E+00
  0.00000000E+00  0.00000000E+00  0.00000000E+00
  0.00000000E+00  0.00000000E+00  0.00000000E+00
  0.00000000E+00  0.00000000E+00  0.00000000E+00
  0.00000000E+00  0.00000000E+00  0.00000000E+00
  0.00000000E+00  0.00000000E+00  0.00000000E+00
  0.00000000E+00  0.00000000E+00  0.00000000E+00
  0.00000000E+00  0.00000000E+00  0.00000000E+00
  0.00000000E+00  0.00000000E+00  0.00000000E+00
  0.00000000E+00  0.00000000E+00  0.00000000E+00
  0.00000000E+00  0.00000000E+00  0.00000000E+00
  0.00000000E+00  0.00000000E+00  0.00000000E+00
  0.00000000E+00  0.00000000E+00  0.00000000E+00
  0.00000000E+00  0.00000000E+00  0.00000000E+00
  0.00000000E+00  0.00000000E+00  0.00000000E+00
  0.00000000E+00  0.00000000E+00  0.00000000E+00
  0.00000000E+00  0.00000000E+00  0.00000000E+00
  0.00000000E+00  0.00000000E+00  0.00000000E+00
  0.00000000E+00  0.00000000E+00  0.00000000E+00
  0.00000000E+00  0.00000000E+00  0.00000000E+00
  0.00000000E+00  0.00000000E+00  0.00000000E+00
  0.00000000E+00  0.00000000E+00  0.00000000E+00
  0.00000000E+00  0.00000000E+00  0.00000000E+00
  0.00000000E+00  0.00000000E+00  0.00000000E+00
  0.00000000E+00  0.00000000E+00  0.00000000E+00
  0.00000000E+00  0.00000000E+00  0.00000000E+00
  0.00000000E+00  0.00000000E+00  0.00000000E+00
  0.00000000E+00  0.00000000E+00  0.00000000E+00
  0.00000000E+00  0.00000000E+00  0.00000000E+00
  0.00000000E+00  0.00000000E+00  0.00000000E+00
  0.00000000E+00  0.00000000E+00  0.00000000E+00
  0.00000000E+00  0.00000000E+00  0.00000000E+00
  0.00000000E+00  0.00000000E+00  0.00000000E+00
  0.00000000E+00  0.00000000E+00  0.00000000E+00
