H    C    N    Os
   1.00000000000000     
  17.0990250000000010  -9.8721259999999997   0.0000000000000000
   0.0000000000000000  19.7442530000000005   0.0000000000000000
   0.0000000000000000   0.0000000000000000  20.0000000000000000
H    C    N   Ru 
8  115  14  1  
Selective dynamics
Direct
  0.4045179452186818  0.3854427108477483  0.1716930689430883 T T T
  0.4151908912238607  0.4488417819664416  0.2391568177283350 T T T
  0.4731796894040299  0.4031391258688992  0.2365749883833775 T T T
  0.4821531645490573  0.5240145686216361  0.1335597503897881 T T T
  0.5394322983752616  0.4794182249961683  0.1313825976506017 T T T
  0.6032265611138983  0.5441714105374365  0.2412017689772381 T T T
  0.5446186092653299  0.5892422725517684  0.2439461500613152 T T T
  0.6152961735389483  0.6142149758341996  0.1794032937427859 T T T
  0.4473830099050253  0.4305975310216308  0.2055812830021698 T T T
  0.5102813561825008  0.5001439786375623  0.1661334986478996 T T T
  0.5716994078144325  0.5655093251800599  0.2101203258801273 T T T
  0.0208179778649145  0.9790433176804501  0.0034566248840086 T T T
  0.1039034082473876  0.0202637805440797  0.0030791983432889 T T T
  0.1457952144161611  0.9786835723472860  0.0023783772040580 T T T
  0.2292665402334693  0.0205241375138380  0.0013686344201051 T T T
  0.2708716405436511  0.9784686523380888  0.0003146138692324 T T T
  0.3539893515304817  0.0203689163763260  0.9992291624444331 T T T
  0.3956799274022740  0.9783359603139504  0.9984695604923770 T T T
  0.4789216378775411  0.0210967815745891  0.9980468087759830 T T T
  0.5206713621846715  0.9790003435386524  0.9979812113335590 T T T
  0.6039182656452827  0.0217697357312784  0.9984554973765490 T T T
  0.6456385365713797  0.9797536371119444  0.9990942703409650 T T T
  0.7287608505137834  0.0216357628633118  0.0001971666464605 T T T
  0.7703807321451697  0.9795907707333936  0.0012362782192044 T T T
  0.8538457327389635  0.0214354764433643  0.0023045504632586 T T T
  0.8957182536645670  0.9798373412788020  0.0030019871088190 T T T
  0.9787924197325576  0.0210656419998922  0.0034729699870911 T T T
  0.0200222460632451  0.1041415356900334  0.0030808859832452 T T T
  0.1034538224198037  0.1454013464056575  0.0027244732589970 T T T
  0.1451798554264119  0.1036845573855741  0.0027387385246096 T T T
  0.2280342388052347  0.1451220086577757  0.0017037948658048 T T T
  0.2703925726287696  0.1037488926996920  0.0009945059604167 T T T
  0.3537370632659603  0.1458953518705433  0.9994885655231061 T T T
  0.3950341160961749  0.1038725006602045  0.9988082264805770 T T T
  0.4781534029640759  0.1471246593164918  0.9977208875541920 T T T
  0.5199926638394637  0.1050211804770295  0.9977355134041230 T T T
  0.6031162815494931  0.1476667945527086  0.9975800056789228 T T T
  0.6448960024043916  0.1054701022357219  0.9983083013371910 T T T
  0.7281264914521646  0.1471840494730113  0.9988499081446141 T T T
  0.7699998475098148  0.1051921637290488  0.0000599327431576 T T T
  0.8532454725390763  0.1466017968044497  0.0008588627546212 T T T
  0.8951480165920369  0.1047171609807245  0.0020624171586197 T T T
  0.9784343308921960  0.1460281121360567  0.0023819316948234 T T T
  0.0202814686313264  0.2294877842013282  0.0013175493928782 T T T
  0.1035092846859487  0.2706076028386583  0.0008763309518769 T T T
  0.1448860525811685  0.2282502009466753  0.0016396175951568 T T T
  0.2276138139556521  0.2693645218087765  0.0006542404830895 T T T
  0.2691223445639675  0.2278514353281047  0.0006904615491399 T T T
  0.3944719850194032  0.2289333559825954  0.9983894144337230 T T T
  0.5185494548895160  0.2300058855954233  0.9968926736426392 T T T
  0.6013305395023831  0.2741252307146106  0.9961344225010582 T T T
  0.6436358883804271  0.2314531167211416  0.9969230234774710 T T T
  0.7270607855356219  0.2728164287576773  0.9971523442311060 T T T
  0.7691934546232020  0.2306770048181608  0.9982503889325370 T T T
  0.8526786718225677  0.2717285095841789  0.9988557451807880 T T T
  0.8946647662800747  0.2298518445374084  0.0000989299418268 T T T
  0.9782275606291596  0.2710985548303759  0.0002688217839188 T T T
  0.0201077307718172  0.3542233651292680  0.9991554605687230 T T T
  0.1036242365389830  0.3952571553384988  0.9986550927723979 T T T
  0.1456490544243448  0.3539534527474950  0.9993095113243430 T T T
  0.2286903939221988  0.3946932134932293  0.9981682837175970 T T T
  0.3488369150933314  0.3901580528577933  0.9937258507456412 T T T
  0.3899223750610054  0.3490814785008477  0.9938413090990904 T T T
  0.5160172631477492  0.3554787297077621  0.9926523306131904 T T T
  0.6427312748145591  0.3571503894363502  0.9951284343580020 T T T
  0.7257516840187286  0.3985478757227947  0.9960932889015480 T T T
  0.7684332493531861  0.3562502138708717  0.9968731427224824 T T T
  0.8522085745006686  0.3967475950172945  0.9975244820386160 T T T
  0.8944014714682383  0.3549670326301768  0.9982905519602930 T T T
  0.9780939452022988  0.3959342602103733  0.9984619138325010 T T T
  0.0208571172050678  0.4791811710393228  0.9979763430846790 T T T
  0.1047826118919460  0.5202349696080818  0.9975451312358180 T T T
  0.1468839796698853  0.4783784806718496  0.9975043010762900 T T T
  0.2297607933467016  0.5187556880049425  0.9965646013882582 T T T
  0.3552118876668529  0.5162571677137172  0.9922917121656480 T T T
  0.6444027581664354  0.4838690872412493  0.9926143005767238 T T T
  0.7698703782924442  0.4813332761367194  0.9968478419952164 T T T
  0.8527483384431243  0.5217141454665254  0.9976730731154980 T T T
  0.8948469431786037  0.4798655430545764  0.9976896403930300 T T T
  0.9787672766926064  0.5209356208567572  0.9980128796563130 T T T
  0.0215300097057953  0.6041844723965792  0.9984296948608580 T T T
  0.1052310995647554  0.6451547017783036  0.9981653507098310 T T T
  0.1474292766115708  0.6033723934370282  0.9973557696831520 T T T
  0.2312130587875918  0.6438708945636640  0.9966052644046104 T T T
  0.2738765623331621  0.6015517390542855  0.9957582767107884 T T T
  0.3568977242295355  0.6429727400367575  0.9947328249214388 T T T
  0.4836083412798039  0.6446431837567675  0.9923407978839780 T T T
  0.6097002060142325  0.6510146936710967  0.9938023313067814 T T T
  0.6507742826462166  0.6099365055977800  0.9938788873163950 T T T
  0.7709486736406397  0.6054171560363782  0.9983873565810160 T T T
  0.8539826355216822  0.6461551214151450  0.9994537949424660 T T T
  0.8959970650083166  0.6048388992024042  0.9987690723813100 T T T
  0.9795026220094408  0.6458868989286281  0.9991651998141420 T T T
  0.0213828954270543  0.7290018191274547  0.0002189187115611 T T T
  0.1049393082265987  0.7702390987769649  0.0000515983536556 T T T
  0.1469404980116289  0.7283828305642300  0.9987498250915650 T T T
  0.2304224838838578  0.7694238869281917  0.9981059915344060 T T T
  0.2725721899092001  0.7273056698398613  0.9969015373269140 T T T
  0.3559968559505633  0.7686622972410571  0.9965970757445772 T T T
  0.3983086661956107  0.7259934469969217  0.9957413457909116 T T T
  0.4810989382978433  0.7701055085241292  0.9965640686017788 T T T
  0.6051759176918520  0.7711784405103185  0.9981827336110950 T T T
  0.7304972192278604  0.7722587023826050  0.0006418902579400 T T T
  0.7720079851371603  0.7307483673623568  0.0006902327131296 T T T
  0.8547354135519329  0.7718418046747957  0.0016286728254746 T T T
  0.8961205633932580  0.7294933799130620  0.0009159183613209 T T T
  0.9793408357820300  0.7706138164484476  0.0012740065511135 T T T
  0.0211844910462671  0.8540760701877338  0.0022990781912819 T T T
  0.1044779773229754  0.8953961075119882  0.0020371994439425 T T T
  0.1463675967278772  0.8534886850740164  0.0008663984181886 T T T
  0.2296202797494078  0.8949039467430716  0.0001104609878562 T T T
  0.2714798436798965  0.8529062097664361  0.9987739620142300 T T T
  0.3547091607006138  0.8946323720081818  0.9981974844224060 T T T
  0.3964984917197679  0.8524430577212784  0.9973540198451584 T T T
  0.4796227324785704  0.8950810724689573  0.9975379139469860 T T T
  0.5214813386700595  0.8529800752928342  0.9974893236174029 T T T
  0.6046032951527395  0.8962398241410119  0.9986169684845330 T T T
  0.6459174817622363  0.8542226278621891  0.9992855372326180 T T T
  0.7292647086964481  0.8963702528963319  0.0008200704008540 T T T
  0.7716149764780208  0.8549879455515547  0.0015774745970850 T T T
  0.8544664976700221  0.8964172382103173  0.0026106120731777 T T T
  0.8961775510141832  0.8546925719545644  0.0026106684781835 T T T
  0.9795979400150940  0.8959651323326689  0.0029864743446707 T T T
  0.3515545662837677  0.2673945748920554  0.9989233400852680 T T T
  0.4767671138221109  0.2722719733196449  0.9969666964046230 T T T
  0.2671527852300220  0.3517885168236989  0.9987674111138590 T T T
  0.4705489413938839  0.3892121912536197  0.9869629055609930 T T T
  0.5995077174566548  0.4003792539565806  0.9932702123076418 T T T
  0.2720152240665297  0.4769759730362270  0.9966582604353950 T T T
  0.3889648496302170  0.4707873468883928  0.9867721228480888 T T T
  0.6106594242611251  0.5293273384886097  0.9869007234778040 T T T
  0.7276158188901799  0.5231269306983111  0.9969545396050660 T T T
  0.4001113032728432  0.5997571561847064  0.9929167649445900 T T T
  0.5290791380746389  0.6108987253998936  0.9867681856502684 T T T
  0.7324687061073047  0.6483159869388935  0.9989657291444440 T T T
  0.5228862003361339  0.7278495815266931  0.9966879999144390 T T T
  0.6480713907081684  0.7327083269920697  0.9988216935655970 T T T
  0.4997904232202694  0.5000450760631029  0.9799824836288989 T T T
