out (3)                                 
   1.00000000000000     
    17.0990250000000010   -9.8721270000000008    0.0000000000000000
     0.0000000000000000   19.7442530000000005    0.0000000000000000
     0.0000000000000000    0.0000000000000000   20.0000000000000000
   H    C    N    Ru
     8   116    13     1
Selective dynamics
Direct
  0.3397652382680766  0.4214614931909810  0.1716855447775035   T   T   T
  0.4263897685221026  0.4739092603366523  0.2201286105982161   T   T   T
  0.3667978383754601  0.3704548046878272  0.2291829821190145   T   T   T
  0.4618290592481680  0.5382615925246103  0.1137463715336078   T   T   T
  0.4017235339956004  0.3513498850702606  0.1116881591798443   T   T   T
  0.5507679555811839  0.4720652688116757  0.1851634897208199   T   T   T
  0.5565880985123135  0.5669704741642965  0.1163481553130827   T   T   T
  0.5431406424474217  0.4019297477436104  0.1213238809707379   T   T   T
  0.3900963651214611  0.4191037659418931  0.1928465821006753   T   T   T
  0.4365152377667720  0.4062230457472334  0.1390794437310908   T   T   T
  0.5178044065638294  0.4351296475537575  0.1430228307240550   T   T   T
  0.0213168294445724  0.9789039152999598  0.9906042769546523   T   T   T
  0.1047388628717131  0.0205979385230592  0.9909869588938319   T   T   T
  0.1463966035057584  0.9790563405954134  0.9924206724617034   T   T   T
  0.2299922532285139  0.0212824346546389  0.9929990950174322   T   T   T
  0.2712957102053045  0.9789188144339432  0.9948770079603738   T   T   T
  0.3547692346355057  0.0210324756053909  0.9955946206231886   T   T   T
  0.3962185418225224  0.9785445779099748  0.9962571717653044   T   T   T
  0.4794195088359716  0.0206751738024776  0.9960432024172872   T   T   T
  0.5208523886312301  0.9780073054650537  0.9953630942951327   T   T   T
  0.6041663936098788  0.0204608968282833  0.9944923730247096   T   T   T
  0.6457119150174045  0.9780523627396642  0.9929095611057563   T   T   T
  0.7291136872025353  0.0201803767836676  0.9921893396877186   T   T   T
  0.7705483206093052  0.9781736892692956  0.9906910670013371   T   T   T
  0.8541247580440540  0.0203304283366432  0.9905095654187179   T   T   T
  0.8961566388889481  0.9789878923531072  0.9898153608876866   T   T   T
  0.9794736399348212  0.0206224872049700  0.9901173288588924   T   T   T
  0.0210161818065189  0.1040182713490594  0.9904828690817689   T   T   T
  0.1046536104666706  0.1457123653065872  0.9901209395189063   T   T   T
  0.1463753767665441  0.1042594920871700  0.9901488668101566   T   T   T
  0.2296517714488031  0.1462684517433893  0.9899530587127091   T   T   T
  0.2712345610372495  0.1047208572120037  0.9916944794387710   T   T   T
  0.3551792836983358  0.1474730840382264  0.9933610809035158   T   T   T
  0.3959177985056355  0.1045024244533772  0.9953763272401644   T   T   T
  0.4790597755098042  0.1471902935988781  0.9962733092573425   T   T   T
  0.5207275116066010  0.1046266645405808  0.9962803885258851   T   T   T
  0.6038065097641065  0.1469128997623153  0.9964057706997822   T   T   T
  0.6454712526295462  0.1042749186176862  0.9953419463222103   T   T   T
  0.7287014270618343  0.1459932315118012  0.9951186039907008   T   T   T
  0.7705542283833849  0.1039528724749574  0.9935091888234979   T   T   T
  0.8538669941676563  0.1455611638498945  0.9934068162762933   T   T   T
  0.8956787534539159  0.1038427375568113  0.9917667280226103   T   T   T
  0.9792680285284154  0.1455226862444697  0.9916010373777980   T   T   T
  0.0213600569201024  0.2290976599954984  0.9931428793380019   T   T   T
  0.1046712758086311  0.2703125319356964  0.9925394533743533   T   T   T
  0.1464248542392562  0.2289088673625981  0.9903444638660451   T   T   T
  0.2298199941466552  0.2703868234851957  0.9889606294424022   T   T   T
  0.2710021023019487  0.2297126328566145  0.9886334883603975   T   T   T
  0.3959119894443059  0.2301892233290088  0.9928770428181576   T   T   T
  0.5194978577715307  0.2301517118898752  0.9969995852415016   T   T   T
  0.6021036530245062  0.2735239464110798  0.9978947776830025   T   T   T
  0.6443881799399847  0.2305594711188078  0.9973796180712663   T   T   T
  0.7278239531248414  0.2718503529772430  0.9977125807158573   T   T   T
  0.7699625004600149  0.2296455371017934  0.9965627919807577   T   T   T
  0.8534250813067017  0.2708494032681242  0.9968334620767824   T   T   T
  0.8956826442013049  0.2291251053720636  0.9952378865623646   T   T   T
  0.9789883105191474  0.2704068000781345  0.9953317442668895   T   T   T
  0.0211669242730417  0.3539189986748044  0.9973356620533835   T   T   T
  0.1043691037511971  0.3950657574207459  0.9975766028057496   T   T   T
  0.1472992937209756  0.3542330460328023  0.9951450765368955   T   T   T
  0.2295433298256087  0.3948341325405653  0.9950097883773684   T   T   T
  0.3531984606215555  0.3938889428733466  0.9933089645434587   T   T   T
  0.3948273004127760  0.3540005407942307  0.9904104472341156   T   T   T
  0.5169020124702599  0.3570837953883665  0.9953679716502771   T   T   T
  0.6432168401917505  0.3565973393461553  0.9988693703393124   T   T   T
  0.7262723901861422  0.3976118795932462  0.9997075932903832   T   T   T
  0.7690249360459535  0.3552172856714643  0.9990417093065324   T   T   T
  0.8527309399662473  0.3958685096805387  0.9992960045552755   T   T   T
  0.8950757847346749  0.3541557496172849  0.9983839943871872   T   T   T
  0.9788534614521971  0.3955130343493343  0.9986330862814796   T   T   T
  0.0212383806076346  0.4787519161481358  0.9995157550911996   T   T   T
  0.1050255002593318  0.5200896991984187  0.9996462793763289   T   T   T
  0.1472112290377108  0.4782086743592023  0.9990568485730495   T   T   T
  0.2299869898294969  0.5187059707934301  0.9994680806216466   T   T   T
  0.3556412984986390  0.5159233309577047  0.9995161003170104   T   T   T
  0.6439934968444752  0.4832745394188390  0.0016117299542579   T   T   T
  0.7699676308332479  0.4803303562725810  0.0003301361965270   T   T   T
  0.8529526829561568  0.5209071980810597  0.9999312814804511   T   T   T
  0.8951523731520572  0.4790604586444531  0.9998135092695616   T   T   T
  0.9789315926433408  0.5203778374954621  0.9997417711918746   T   T   T
  0.0213417227649363  0.6036367698954055  0.9994025646510364   T   T   T
  0.1051361011327785  0.6450555660509201  0.9992640077495613   T   T   T
  0.1474131794533797  0.6032211339152459  0.9997256201561077   T   T   T
  0.2310175435557930  0.6438971779934095  0.9997915142117207   T   T   T
  0.2736028814260064  0.6014349651105847  0.0002775280151120   T   T   T
  0.3566141212918420  0.6421827646419384  0.0006771294960023   T   T   T
  0.4834401943456345  0.6413545963778446  0.0014902974972545   T   T   T
  0.6484508810311855  0.6055057731576003  0.0012989849424512   T   T   T
  0.7705534982749316  0.6039027065759539  0.9971742759229246   T   T   T
  0.8530120686814820  0.6449934224405056  0.9968438987562164   T   T   T
  0.8957898974627426  0.6039717524419865  0.9989090151215790   T   T   T
  0.9791548491084507  0.6452280524907987  0.9985643824892544   T   T   T
  0.0214525126296277  0.7287513412622728  0.9968893182571150   T   T   T
  0.1047433458095851  0.7701545950958841  0.9969921457327608   T   T   T
  0.1468331976772810  0.7282589813597518  0.9983329914677549   T   T   T
  0.2303563869170132  0.7695643242224035  0.9982474291774723   T   T   T
  0.2723692624888703  0.7273061524997110  0.9990656732389581   T   T   T
  0.3557772825367638  0.7683335551754191  0.9983691166184542   T   T   T
  0.3977873738985736  0.7253350133318234  0.9987423032193014   T   T   T
  0.4807235291917923  0.7683444941970957  0.9957841015427059   T   T   T
  0.6037959500270629  0.7674552546639360  0.9914170780639504   T   T   T
  0.7298613693787153  0.7697411355880424  0.9893424443856408   T   T   T
  0.7720307730286047  0.7295885365244528  0.9902926847602714   T   T   T
  0.8543401248204432  0.7702741965458271  0.9913787171043984   T   T   T
  0.8961101508312844  0.7287966948703836  0.9940736965075117   T   T   T
  0.9791934365662719  0.7701086266335826  0.9946715313343899   T   T   T
  0.0213545317873726  0.8538165556313115  0.9930628404488602   T   T   T
  0.1047593771761630  0.8954236267128793  0.9937014749372568   T   T   T
  0.1465093139178835  0.8537042543539335  0.9955654391785020   T   T   T
  0.2299099885141616  0.8954505120270544  0.9959359114488303   T   T   T
  0.2716619177221843  0.8531601997412134  0.9971627269467607   T   T   T
  0.3548249427792934  0.8946457298948388  0.9968478016004815   T   T   T
  0.3964683337666361  0.8520648123061785  0.9969745015717101   T   T   T
  0.4795823555633453  0.8940737554781490  0.9956389735632546   T   T   T
  0.5211201126796573  0.8513644348324091  0.9945353210324628   T   T   T
  0.6046701899013152  0.8944042083654582  0.9924735751274676   T   T   T
  0.6454539080634111  0.8520033165050152  0.9908097290905749   T   T   T
  0.7289543847409443  0.8942441358963242  0.9899109419899091   T   T   T
  0.7713719031594367  0.8533113519921474  0.9891938112856801   T   T   T
  0.8546195330793909  0.8954194189613591  0.9894705433867667   T   T   T
  0.8961988616566479  0.8539061875642815  0.9904346648866440   T   T   T
  0.9797183281719384  0.8955024177496684  0.9912474891056873   T   T   T
  0.6465495177116766  0.7284372178717661  0.9908011753597740   T   T   T
  0.5265575319151335  0.6041023019042030  0.0115205395753952   T   T   T
  0.3546886056019410  0.2705605150266963  0.9880985372887248   T   T   T
  0.4780427304442640  0.2726939822468273  0.9969007903634490   T   T   T
  0.2701779981494290  0.3537345967670837  0.9892153876464888   T   T   T
  0.4755298181914118  0.3936783421215767  0.9939490371383350   T   T   T
  0.6004373980104842  0.3995767013721095  0.9976388628282696   T   T   T
  0.2721377239539356  0.4770811441707902  0.9984906343068950   T   T   T
  0.3911234031907844  0.4735929709920775  0.0028308177620186   T   T   T
  0.6094280893241043  0.5269125478173883  0.0092705900302504   T   T   T
  0.7279265343568678  0.5218757961475933  0.0004169933814442   T   T   T
  0.3983182830986608  0.5989057142848994  0.0016340097708007   T   T   T
  0.6081382433760094  0.6457098504428793  0.9990175524398921   T   T   T
  0.7296547342100587  0.6455057950270975  0.9919631360600820   T   T   T
  0.5211932011082404  0.7260661388679435  0.9934331291658791   T   T   T
  0.4989766645383073  0.5028691662831417  0.0634353641919351   T   T   T
 
  0.00000000E+00  0.00000000E+00  0.00000000E+00
  0.00000000E+00  0.00000000E+00  0.00000000E+00
  0.00000000E+00  0.00000000E+00  0.00000000E+00
  0.00000000E+00  0.00000000E+00  0.00000000E+00
  0.00000000E+00  0.00000000E+00  0.00000000E+00
  0.00000000E+00  0.00000000E+00  0.00000000E+00
  0.00000000E+00  0.00000000E+00  0.00000000E+00
  0.00000000E+00  0.00000000E+00  0.00000000E+00
  0.00000000E+00  0.00000000E+00  0.00000000E+00
  0.00000000E+00  0.00000000E+00  0.00000000E+00
  0.00000000E+00  0.00000000E+00  0.00000000E+00
  0.00000000E+00  0.00000000E+00  0.00000000E+00
  0.00000000E+00  0.00000000E+00  0.00000000E+00
  0.00000000E+00  0.00000000E+00  0.00000000E+00
  0.00000000E+00  0.00000000E+00  0.00000000E+00
  0.00000000E+00  0.00000000E+00  0.00000000E+00
  0.00000000E+00  0.00000000E+00  0.00000000E+00
  0.00000000E+00  0.00000000E+00  0.00000000E+00
  0.00000000E+00  0.00000000E+00  0.00000000E+00
  0.00000000E+00  0.00000000E+00  0.00000000E+00
  0.00000000E+00  0.00000000E+00  0.00000000E+00
  0.00000000E+00  0.00000000E+00  0.00000000E+00
  0.00000000E+00  0.00000000E+00  0.00000000E+00
  0.00000000E+00  0.00000000E+00  0.00000000E+00
  0.00000000E+00  0.00000000E+00  0.00000000E+00
  0.00000000E+00  0.00000000E+00  0.00000000E+00
  0.00000000E+00  0.00000000E+00  0.00000000E+00
  0.00000000E+00  0.00000000E+00  0.00000000E+00
  0.00000000E+00  0.00000000E+00  0.00000000E+00
  0.00000000E+00  0.00000000E+00  0.00000000E+00
  0.00000000E+00  0.00000000E+00  0.00000000E+00
  0.00000000E+00  0.00000000E+00  0.00000000E+00
  0.00000000E+00  0.00000000E+00  0.00000000E+00
  0.00000000E+00  0.00000000E+00  0.00000000E+00
  0.00000000E+00  0.00000000E+00  0.00000000E+00
  0.00000000E+00  0.00000000E+00  0.00000000E+00
  0.00000000E+00  0.00000000E+00  0.00000000E+00
  0.00000000E+00  0.00000000E+00  0.00000000E+00
  0.00000000E+00  0.00000000E+00  0.00000000E+00
  0.00000000E+00  0.00000000E+00  0.00000000E+00
  0.00000000E+00  0.00000000E+00  0.00000000E+00
  0.00000000E+00  0.00000000E+00  0.00000000E+00
  0.00000000E+00  0.00000000E+00  0.00000000E+00
  0.00000000E+00  0.00000000E+00  0.00000000E+00
  0.00000000E+00  0.00000000E+00  0.00000000E+00
  0.00000000E+00  0.00000000E+00  0.00000000E+00
  0.00000000E+00  0.00000000E+00  0.00000000E+00
  0.00000000E+00  0.00000000E+00  0.00000000E+00
  0.00000000E+00  0.00000000E+00  0.00000000E+00
  0.00000000E+00  0.00000000E+00  0.00000000E+00
  0.00000000E+00  0.00000000E+00  0.00000000E+00
  0.00000000E+00  0.00000000E+00  0.00000000E+00
  0.00000000E+00  0.00000000E+00  0.00000000E+00
  0.00000000E+00  0.00000000E+00  0.00000000E+00
  0.00000000E+00  0.00000000E+00  0.00000000E+00
  0.00000000E+00  0.00000000E+00  0.00000000E+00
  0.00000000E+00  0.00000000E+00  0.00000000E+00
  0.00000000E+00  0.00000000E+00  0.00000000E+00
  0.00000000E+00  0.00000000E+00  0.00000000E+00
  0.00000000E+00  0.00000000E+00  0.00000000E+00
  0.00000000E+00  0.00000000E+00  0.00000000E+00
  0.00000000E+00  0.00000000E+00  0.00000000E+00
  0.00000000E+00  0.00000000E+00  0.00000000E+00
  0.00000000E+00  0.00000000E+00  0.00000000E+00
  0.00000000E+00  0.00000000E+00  0.00000000E+00
  0.00000000E+00  0.00000000E+00  0.00000000E+00
  0.00000000E+00  0.00000000E+00  0.00000000E+00
  0.00000000E+00  0.00000000E+00  0.00000000E+00
  0.00000000E+00  0.00000000E+00  0.00000000E+00
  0.00000000E+00  0.00000000E+00  0.00000000E+00
  0.00000000E+00  0.00000000E+00  0.00000000E+00
  0.00000000E+00  0.00000000E+00  0.00000000E+00
  0.00000000E+00  0.00000000E+00  0.00000000E+00
  0.00000000E+00  0.00000000E+00  0.00000000E+00
  0.00000000E+00  0.00000000E+00  0.00000000E+00
  0.00000000E+00  0.00000000E+00  0.00000000E+00
  0.00000000E+00  0.00000000E+00  0.00000000E+00
  0.00000000E+00  0.00000000E+00  0.00000000E+00
  0.00000000E+00  0.00000000E+00  0.00000000E+00
  0.00000000E+00  0.00000000E+00  0.00000000E+00
  0.00000000E+00  0.00000000E+00  0.00000000E+00
  0.00000000E+00  0.00000000E+00  0.00000000E+00
  0.00000000E+00  0.00000000E+00  0.00000000E+00
  0.00000000E+00  0.00000000E+00  0.00000000E+00
  0.00000000E+00  0.00000000E+00  0.00000000E+00
  0.00000000E+00  0.00000000E+00  0.00000000E+00
  0.00000000E+00  0.00000000E+00  0.00000000E+00
  0.00000000E+00  0.00000000E+00  0.00000000E+00
  0.00000000E+00  0.00000000E+00  0.00000000E+00
  0.00000000E+00  0.00000000E+00  0.00000000E+00
  0.00000000E+00  0.00000000E+00  0.00000000E+00
  0.00000000E+00  0.00000000E+00  0.00000000E+00
  0.00000000E+00  0.00000000E+00  0.00000000E+00
  0.00000000E+00  0.00000000E+00  0.00000000E+00
  0.00000000E+00  0.00000000E+00  0.00000000E+00
  0.00000000E+00  0.00000000E+00  0.00000000E+00
  0.00000000E+00  0.00000000E+00  0.00000000E+00
  0.00000000E+00  0.00000000E+00  0.00000000E+00
  0.00000000E+00  0.00000000E+00  0.00000000E+00
  0.00000000E+00  0.00000000E+00  0.00000000E+00
  0.00000000E+00  0.00000000E+00  0.00000000E+00
  0.00000000E+00  0.00000000E+00  0.00000000E+00
  0.00000000E+00  0.00000000E+00  0.00000000E+00
  0.00000000E+00  0.00000000E+00  0.00000000E+00
  0.00000000E+00  0.00000000E+00  0.00000000E+00
  0.00000000E+00  0.00000000E+00  0.00000000E+00
  0.00000000E+00  0.00000000E+00  0.00000000E+00
  0.00000000E+00  0.00000000E+00  0.00000000E+00
  0.00000000E+00  0.00000000E+00  0.00000000E+00
  0.00000000E+00  0.00000000E+00  0.00000000E+00
  0.00000000E+00  0.00000000E+00  0.00000000E+00
  0.00000000E+00  0.00000000E+00  0.00000000E+00
  0.00000000E+00  0.00000000E+00  0.00000000E+00
  0.00000000E+00  0.00000000E+00  0.00000000E+00
  0.00000000E+00  0.00000000E+00  0.00000000E+00
  0.00000000E+00  0.00000000E+00  0.00000000E+00
  0.00000000E+00  0.00000000E+00  0.00000000E+00
  0.00000000E+00  0.00000000E+00  0.00000000E+00
  0.00000000E+00  0.00000000E+00  0.00000000E+00
  0.00000000E+00  0.00000000E+00  0.00000000E+00
  0.00000000E+00  0.00000000E+00  0.00000000E+00
  0.00000000E+00  0.00000000E+00  0.00000000E+00
  0.00000000E+00  0.00000000E+00  0.00000000E+00
  0.00000000E+00  0.00000000E+00  0.00000000E+00
  0.00000000E+00  0.00000000E+00  0.00000000E+00
  0.00000000E+00  0.00000000E+00  0.00000000E+00
  0.00000000E+00  0.00000000E+00  0.00000000E+00
  0.00000000E+00  0.00000000E+00  0.00000000E+00
  0.00000000E+00  0.00000000E+00  0.00000000E+00
  0.00000000E+00  0.00000000E+00  0.00000000E+00
  0.00000000E+00  0.00000000E+00  0.00000000E+00
  0.00000000E+00  0.00000000E+00  0.00000000E+00
  0.00000000E+00  0.00000000E+00  0.00000000E+00
  0.00000000E+00  0.00000000E+00  0.00000000E+00
  0.00000000E+00  0.00000000E+00  0.00000000E+00
  0.00000000E+00  0.00000000E+00  0.00000000E+00
  0.00000000E+00  0.00000000E+00  0.00000000E+00
  0.00000000E+00  0.00000000E+00  0.00000000E+00
