RuN14                                   
   1.00000000000000     
    17.0990259999999985   -9.8721239999999995    0.0000000000000000
     0.0000000000000000   19.7442530000000005    0.0000000000000000
     0.0000000000000000    0.0000000000000000   20.0000000000000000
   C    N    Ru
   113    13     1
Selective dynamics
Direct
  0.0210532831829925  0.9792443114347333  0.0000000000000000   T   T   T
  0.1041465498201260  0.0203696203348695  0.0000000000000000   T   T   T
  0.1459162577496610  0.9787678511653244  0.0000000000000000   T   T   T
  0.2292921471918054  0.0205327174906738  0.0000000000000000   T   T   T
  0.2709626550765196  0.9785186066971963  0.0000000000000000   T   T   T
  0.3541713727859459  0.0204871756318082  0.0000000000000000   T   T   T
  0.3958965381717496  0.9784757560123282  0.0000000000000000   T   T   T
  0.4791788129311889  0.0210457881868400  0.0000000000000000   T   T   T
  0.5208207203860492  0.9789143594754548  0.0000000000000000   T   T   T
  0.6041408091539634  0.0216187131635087  0.0000000000000000   T   T   T
  0.6458694835984736  0.9795458641073574  0.0000000000000000   T   T   T
  0.7291387352613661  0.0215913517764468  0.0000000000000000   T   T   T
  0.7707576404399977  0.9797863759041744  0.0000000000000000   T   T   T
  0.8541134068832644  0.0215162878578243  0.0000000000000000   T   T   T
  0.8962518273386606  0.9801278754068246  0.0000000000000000   T   T   T
  0.9792682257603730  0.0212015592946106  0.0000000000000000   T   T   T
  0.0203843209227634  0.1042826787580615  0.0000000000000000   T   T   T
  0.1036391807169963  0.1453767424744599  0.0000000000000000   T   T   T
  0.1452406717268174  0.1036100422938444  0.0000000000000000   T   T   T
  0.2281234425127486  0.1449813545413215  0.0000000000000000   T   T   T
  0.2702838931134802  0.1036827960478353  0.0000000000000000   T   T   T
  0.3539359000696017  0.1458668207392560  0.0000000000000000   T   T   T
  0.3951585413864784  0.1037888899414399  0.0000000000000000   T   T   T
  0.4784469901962697  0.1469332497327481  0.0000000000000000   T   T   T
  0.5203274942041527  0.1048573178919586  0.0000000000000000   T   T   T
  0.6033691504520352  0.1475257751101474  0.0000000000000000   T   T   T
  0.6451813456025961  0.1052609814560006  0.0000000000000000   T   T   T
  0.7284771107344409  0.1471238365532415  0.0000000000000000   T   T   T
  0.7703504337969346  0.1051643048056401  0.0000000000000000   T   T   T
  0.8535858488447881  0.1465645704850832  0.0000000000000000   T   T   T
  0.8954085555811262  0.1047514138954412  0.0000000000000000   T   T   T
  0.9787423993964594  0.1460138851130217  0.0000000000000000   T   T   T
  0.0205230533130760  0.2293875034097464  0.0000000000000000   T   T   T
  0.1037372604671880  0.2703716629385975  0.0000000000000000   T   T   T
  0.1450457538749303  0.2282281632629354  0.0000000000000000   T   T   T
  0.2279081521347707  0.2692599050256039  0.0000000000000000   T   T   T
  0.2691479304391183  0.2277848943901377  0.0000000000000000   T   T   T
  0.3943747829801452  0.2284620753751949  0.0000000000000000   T   T   T
  0.5187721842668861  0.2294801110087538  0.0000000000000000   T   T   T
  0.6015986272569634  0.2739759108367381  0.0000000000000000   T   T   T
  0.6439812751330435  0.2312932753493223  0.0000000000000000   T   T   T
  0.7273412622108395  0.2726973138751673  0.0000000000000000   T   T   T
  0.7695235880147717  0.2305808978535760  0.0000000000000000   T   T   T
  0.8530282278199118  0.2716890873529013  0.0000000000000000   T   T   T
  0.8950746171820212  0.2299324134482248  0.0000000000000000   T   T   T
  0.9785211374055121  0.2710752867826640  0.0000000000000000   T   T   T
  0.0204783162330303  0.3542328788795260  0.0000000000000000   T   T   T
  0.1039194650246732  0.3951225542165223  0.0000000000000000   T   T   T
  0.1458745318812177  0.3539171983954000  0.0000000000000000   T   T   T
  0.2288242520188803  0.3944955381976190  0.0000000000000000   T   T   T
  0.3496987489159640  0.3906422653779872  0.0000000000000000   T   T   T
  0.3906803275543727  0.3492291851358701  0.0000000000000000   T   T   T
  0.5157296822352320  0.3544071817652252  0.0000000000000000   T   T   T
  0.6427072809041596  0.3570255188842382  0.0000000000000000   T   T   T
  0.7258839383735455  0.3984553963169659  0.0000000000000000   T   T   T
  0.7685755234181149  0.3561474979219934  0.0000000000000000   T   T   T
  0.8524590332411943  0.3967369977974058  0.0000000000000000   T   T   T
  0.8947636067551669  0.3549665649435922  0.0000000000000000   T   T   T
  0.9784388568160284  0.3959520012357851  0.0000000000000000   T   T   T
  0.0210618169106787  0.4792441776711567  0.0000000000000000   T   T   T
  0.1049371823859454  0.5203539843660182  0.0000000000000000   T   T   T
  0.1471286777160611  0.4784493250192758  0.0000000000000000   T   T   T
  0.2297152219478401  0.5187019395211309  0.0000000000000000   T   T   T
  0.3551460106731666  0.5164058842307945  0.0000000000000000   T   T   T
  0.6442167294010470  0.4839270195443497  0.0000000000000000   T   T   T
  0.7698834214993496  0.4813540027909220  0.0000000000000000   T   T   T
  0.8526712180467971  0.5216000785412265  0.0000000000000000   T   T   T
  0.8948967231942547  0.4797295791721782  0.0000000000000000   T   T   T
  0.9788799937585901  0.5208574605399539  0.0000000000000000   T   T   T
  0.0215774141834778  0.6040884308417147  0.0000000000000000   T   T   T
  0.1052050076276331  0.6451918488096582  0.0000000000000000   T   T   T
  0.1474047551807154  0.6033650742637892  0.0000000000000000   T   T   T
  0.2311896409849562  0.6440437103199396  0.0000000000000000   T   T   T
  0.2737636523876347  0.6017348130315330  0.0000000000000000   T   T   T
  0.3568360728386272  0.6428853676255334  0.0000000000000000   T   T   T
  0.4840432685143846  0.6448019584288029  0.0000000000000000   T   T   T
  0.6514255142510125  0.6095705240889818  0.0000000000000000   T   T   T
  0.7714190806169323  0.6056923149285940  0.0000000000000000   T   T   T
  0.8539589078460029  0.6460905275554713  0.0000000000000000   T   T   T
  0.8961992595756592  0.6048182647423797  0.0000000000000000   T   T   T
  0.9794611025873076  0.6457598106620117  0.0000000000000000   T   T   T
  0.0216947133282759  0.7290437052007205  0.0000000000000000   T   T   T
  0.1050182360810743  0.7702794903930797  0.0000000000000000   T   T   T
  0.1470146744706055  0.7284443108058900  0.0000000000000000   T   T   T
  0.2303993475834791  0.7695869402825354  0.0000000000000000   T   T   T
  0.2724603508099044  0.7274444710749337  0.0000000000000000   T   T   T
  0.3558005027475960  0.7687812702720349  0.0000000000000000   T   T   T
  0.3979151013208527  0.7261732312678864  0.0000000000000000   T   T   T
  0.4809665089264179  0.7700534678929057  0.0000000000000000   T   T   T
  0.6050183709776966  0.7703038582495992  0.0000000000000000   T   T   T
  0.7315896162406399  0.7727274978331830  0.0000000000000000   T   T   T
  0.7736583756392734  0.7316550696900164  0.0000000000000000   T   T   T
  0.8555696727188951  0.7719209875687371  0.0000000000000000   T   T   T
  0.8967717336122948  0.7296777414142731  0.0000000000000000   T   T   T
  0.9797712590632875  0.7706871907774946  0.0000000000000000   T   T   T
  0.0214745717005794  0.8541730030782267  0.0000000000000000   T   T   T
  0.1046113590166032  0.8954169767127170  0.0000000000000000   T   T   T
  0.1464753630658373  0.8536058482481329  0.0000000000000000   T   T   T
  0.2297583515612473  0.8951178141343960  0.0000000000000000   T   T   T
  0.2715657971235587  0.8530777401660534  0.0000000000000000   T   T   T
  0.3548056645019392  0.8948388871509810  0.0000000000000000   T   T   T
  0.3965711759454393  0.8526217389715175  0.0000000000000000   T   T   T
  0.4796440579937695  0.8950113096714589  0.0000000000000000   T   T   T
  0.5214640741160960  0.8528691163412254  0.0000000000000000   T   T   T
  0.6050329591386587  0.8961895943054363  0.0000000000000000   T   T   T
  0.6460941338047125  0.8541619308378644  0.0000000000000000   T   T   T
  0.7295420347385161  0.8962100957112413  0.0000000000000000   T   T   T
  0.7724205260031021  0.8556176386240513  0.0000000000000000   T   T   T
  0.8553046103067665  0.8970382312712464  0.0000000000000000   T   T   T
  0.8968150047556039  0.8552336957466699  0.0000000000000000   T   T   T
  0.9798940459912912  0.8961371011803850  0.0000000000000000   T   T   T
  0.6489651357578157  0.7323418155422954  0.0000000000000000   T   T   T
  0.5285455632610653  0.6075756690075165  0.0000000000000000   T   T   T
  0.3515447141837858  0.2671067552454970  0.0000000000000000   T   T   T
  0.4771080490414554  0.2714211859892849  0.0000000000000000   T   T   T
  0.2673853910557727  0.3517495083894412  0.0000000000000000   T   T   T
  0.4708507284489336  0.3873430295865821  0.0000000000000000   T   T   T
  0.5993828492042776  0.4000798250566899  0.0000000000000000   T   T   T
  0.2717389240570374  0.4769383886223496  0.0000000000000000   T   T   T
  0.3888353544191763  0.4714809662878352  0.0000000000000000   T   T   T
  0.6105988935716422  0.5302356989032743  0.0000000000000000   T   T   T
  0.7274283388580569  0.5229285728978199  0.0000000000000000   T   T   T
  0.3992144858083232  0.6000918789086734  0.0000000000000000   T   T   T
  0.6115773156682567  0.6511517203644751  0.0000000000000000   T   T   T
  0.7326645951877468  0.6489710344543318  0.0000000000000000   T   T   T
  0.5215270000520122  0.7280719298525842  0.0000000000000000   T   T   T
  0.4990636351521318  0.5002588155637578  0.0000000000000000   T   T   T
 
  0.00000000E+00  0.00000000E+00  0.00000000E+00
  0.00000000E+00  0.00000000E+00  0.00000000E+00
  0.00000000E+00  0.00000000E+00  0.00000000E+00
  0.00000000E+00  0.00000000E+00  0.00000000E+00
  0.00000000E+00  0.00000000E+00  0.00000000E+00
  0.00000000E+00  0.00000000E+00  0.00000000E+00
  0.00000000E+00  0.00000000E+00  0.00000000E+00
  0.00000000E+00  0.00000000E+00  0.00000000E+00
  0.00000000E+00  0.00000000E+00  0.00000000E+00
  0.00000000E+00  0.00000000E+00  0.00000000E+00
  0.00000000E+00  0.00000000E+00  0.00000000E+00
  0.00000000E+00  0.00000000E+00  0.00000000E+00
  0.00000000E+00  0.00000000E+00  0.00000000E+00
  0.00000000E+00  0.00000000E+00  0.00000000E+00
  0.00000000E+00  0.00000000E+00  0.00000000E+00
  0.00000000E+00  0.00000000E+00  0.00000000E+00
  0.00000000E+00  0.00000000E+00  0.00000000E+00
  0.00000000E+00  0.00000000E+00  0.00000000E+00
  0.00000000E+00  0.00000000E+00  0.00000000E+00
  0.00000000E+00  0.00000000E+00  0.00000000E+00
  0.00000000E+00  0.00000000E+00  0.00000000E+00
  0.00000000E+00  0.00000000E+00  0.00000000E+00
  0.00000000E+00  0.00000000E+00  0.00000000E+00
  0.00000000E+00  0.00000000E+00  0.00000000E+00
  0.00000000E+00  0.00000000E+00  0.00000000E+00
  0.00000000E+00  0.00000000E+00  0.00000000E+00
  0.00000000E+00  0.00000000E+00  0.00000000E+00
  0.00000000E+00  0.00000000E+00  0.00000000E+00
  0.00000000E+00  0.00000000E+00  0.00000000E+00
  0.00000000E+00  0.00000000E+00  0.00000000E+00
  0.00000000E+00  0.00000000E+00  0.00000000E+00
  0.00000000E+00  0.00000000E+00  0.00000000E+00
  0.00000000E+00  0.00000000E+00  0.00000000E+00
  0.00000000E+00  0.00000000E+00  0.00000000E+00
  0.00000000E+00  0.00000000E+00  0.00000000E+00
  0.00000000E+00  0.00000000E+00  0.00000000E+00
  0.00000000E+00  0.00000000E+00  0.00000000E+00
  0.00000000E+00  0.00000000E+00  0.00000000E+00
  0.00000000E+00  0.00000000E+00  0.00000000E+00
  0.00000000E+00  0.00000000E+00  0.00000000E+00
  0.00000000E+00  0.00000000E+00  0.00000000E+00
  0.00000000E+00  0.00000000E+00  0.00000000E+00
  0.00000000E+00  0.00000000E+00  0.00000000E+00
  0.00000000E+00  0.00000000E+00  0.00000000E+00
  0.00000000E+00  0.00000000E+00  0.00000000E+00
  0.00000000E+00  0.00000000E+00  0.00000000E+00
  0.00000000E+00  0.00000000E+00  0.00000000E+00
  0.00000000E+00  0.00000000E+00  0.00000000E+00
  0.00000000E+00  0.00000000E+00  0.00000000E+00
  0.00000000E+00  0.00000000E+00  0.00000000E+00
  0.00000000E+00  0.00000000E+00  0.00000000E+00
  0.00000000E+00  0.00000000E+00  0.00000000E+00
  0.00000000E+00  0.00000000E+00  0.00000000E+00
  0.00000000E+00  0.00000000E+00  0.00000000E+00
  0.00000000E+00  0.00000000E+00  0.00000000E+00
  0.00000000E+00  0.00000000E+00  0.00000000E+00
  0.00000000E+00  0.00000000E+00  0.00000000E+00
  0.00000000E+00  0.00000000E+00  0.00000000E+00
  0.00000000E+00  0.00000000E+00  0.00000000E+00
  0.00000000E+00  0.00000000E+00  0.00000000E+00
  0.00000000E+00  0.00000000E+00  0.00000000E+00
  0.00000000E+00  0.00000000E+00  0.00000000E+00
  0.00000000E+00  0.00000000E+00  0.00000000E+00
  0.00000000E+00  0.00000000E+00  0.00000000E+00
  0.00000000E+00  0.00000000E+00  0.00000000E+00
  0.00000000E+00  0.00000000E+00  0.00000000E+00
  0.00000000E+00  0.00000000E+00  0.00000000E+00
  0.00000000E+00  0.00000000E+00  0.00000000E+00
  0.00000000E+00  0.00000000E+00  0.00000000E+00
  0.00000000E+00  0.00000000E+00  0.00000000E+00
  0.00000000E+00  0.00000000E+00  0.00000000E+00
  0.00000000E+00  0.00000000E+00  0.00000000E+00
  0.00000000E+00  0.00000000E+00  0.00000000E+00
  0.00000000E+00  0.00000000E+00  0.00000000E+00
  0.00000000E+00  0.00000000E+00  0.00000000E+00
  0.00000000E+00  0.00000000E+00  0.00000000E+00
  0.00000000E+00  0.00000000E+00  0.00000000E+00
  0.00000000E+00  0.00000000E+00  0.00000000E+00
  0.00000000E+00  0.00000000E+00  0.00000000E+00
  0.00000000E+00  0.00000000E+00  0.00000000E+00
  0.00000000E+00  0.00000000E+00  0.00000000E+00
  0.00000000E+00  0.00000000E+00  0.00000000E+00
  0.00000000E+00  0.00000000E+00  0.00000000E+00
  0.00000000E+00  0.00000000E+00  0.00000000E+00
  0.00000000E+00  0.00000000E+00  0.00000000E+00
  0.00000000E+00  0.00000000E+00  0.00000000E+00
  0.00000000E+00  0.00000000E+00  0.00000000E+00
  0.00000000E+00  0.00000000E+00  0.00000000E+00
  0.00000000E+00  0.00000000E+00  0.00000000E+00
  0.00000000E+00  0.00000000E+00  0.00000000E+00
  0.00000000E+00  0.00000000E+00  0.00000000E+00
  0.00000000E+00  0.00000000E+00  0.00000000E+00
  0.00000000E+00  0.00000000E+00  0.00000000E+00
  0.00000000E+00  0.00000000E+00  0.00000000E+00
  0.00000000E+00  0.00000000E+00  0.00000000E+00
  0.00000000E+00  0.00000000E+00  0.00000000E+00
  0.00000000E+00  0.00000000E+00  0.00000000E+00
  0.00000000E+00  0.00000000E+00  0.00000000E+00
  0.00000000E+00  0.00000000E+00  0.00000000E+00
  0.00000000E+00  0.00000000E+00  0.00000000E+00
  0.00000000E+00  0.00000000E+00  0.00000000E+00
  0.00000000E+00  0.00000000E+00  0.00000000E+00
  0.00000000E+00  0.00000000E+00  0.00000000E+00
  0.00000000E+00  0.00000000E+00  0.00000000E+00
  0.00000000E+00  0.00000000E+00  0.00000000E+00
  0.00000000E+00  0.00000000E+00  0.00000000E+00
  0.00000000E+00  0.00000000E+00  0.00000000E+00
  0.00000000E+00  0.00000000E+00  0.00000000E+00
  0.00000000E+00  0.00000000E+00  0.00000000E+00
  0.00000000E+00  0.00000000E+00  0.00000000E+00
  0.00000000E+00  0.00000000E+00  0.00000000E+00
  0.00000000E+00  0.00000000E+00  0.00000000E+00
  0.00000000E+00  0.00000000E+00  0.00000000E+00
  0.00000000E+00  0.00000000E+00  0.00000000E+00
  0.00000000E+00  0.00000000E+00  0.00000000E+00
  0.00000000E+00  0.00000000E+00  0.00000000E+00
  0.00000000E+00  0.00000000E+00  0.00000000E+00
  0.00000000E+00  0.00000000E+00  0.00000000E+00
  0.00000000E+00  0.00000000E+00  0.00000000E+00
  0.00000000E+00  0.00000000E+00  0.00000000E+00
  0.00000000E+00  0.00000000E+00  0.00000000E+00
  0.00000000E+00  0.00000000E+00  0.00000000E+00
  0.00000000E+00  0.00000000E+00  0.00000000E+00
  0.00000000E+00  0.00000000E+00  0.00000000E+00
  0.00000000E+00  0.00000000E+00  0.00000000E+00
  0.00000000E+00  0.00000000E+00  0.00000000E+00
  0.00000000E+00  0.00000000E+00  0.00000000E+00
