RuN14                                   
   1.00000000000000     
    17.0990259999999985   -9.8721239999999995    0.0000000000000000
     0.0000000000000000   19.7442530000000005    0.0000000000000000
     0.0000000000000000    0.0000000000000000   20.0000000000000000
   H    C    N    Ru
     6   116    13     1
Selective dynamics
Direct
  0.4390338810526466  0.4104963065271639  0.1384662751981487   T   T   T
  0.5463299593698174  0.4585654890346115  0.1445841022808985   T   T   T
  0.4470351288682521  0.5402429659221033  0.1385705461048398   T   T   T
  0.6268671324018867  0.6066533878731138  0.1457327857513639   T   T   T
  0.5693245515974193  0.6108189040831212  0.2120848997391024   T   T   T
  0.5812395031411116  0.6649149975026430  0.1379101951700663   T   T   T
  0.4955156530066773  0.4632647734451563  0.1292452237682846   T   T   T
  0.5011708568426904  0.5387470062861041  0.1297890347248626   T   T   T
  0.5736612361200902  0.6093031853792710  0.1571215990198689   T   T   T
  0.0210055473552735  0.9791676968398650  0.9983807868724669   T   T   T
  0.1041807730458192  0.0204236469263570  0.9983566726891834   T   T   T
  0.1459667260123590  0.9789237209263705  0.9986006112187011   T   T   T
  0.2294075070548651  0.0208446162304780  0.9985860773637105   T   T   T
  0.2708861698969041  0.9786211232661555  0.9995523300172495   T   T   T
  0.3542527869944909  0.0206327753255176  0.9999104020434318   T   T   T
  0.3958426462817831  0.9784672266320176  0.0002520881139402   T   T   T
  0.4790482795940109  0.0208731167315301  0.0002886939894037   T   T   T
  0.5206574416902584  0.9785720524179704 -0.0000852130661634   T   T   T
  0.6039289215897988  0.0211866683813643 -0.0002998018873499   T   T   T
  0.6455980867990859  0.9790285538340849  0.9989251097777760   T   T   T
  0.7289664676360343  0.0211148137605825  0.9988357009631174   T   T   T
  0.7705839403211815  0.9792972693079550  0.9981329163021986   T   T   T
  0.8539608064338933  0.0211045773026300  0.9983879055868626   T   T   T
  0.8960978020334225  0.9797853156219416  0.9980616273378704   T   T   T
  0.9791604770045998  0.0209974247752262  0.9984151107884481   T   T   T
  0.0202946277981618  0.1040969954548906  0.9984566765401891   T   T   T
  0.1036076371914877  0.1453192734276857  0.9978114973032459   T   T   T
  0.1453943822762254  0.1037768731308275  0.9977142721405097   T   T   T
  0.2283213193516709  0.1452325537723491  0.9967243919546459   T   T   T
  0.2703726873083234  0.1040405997956101  0.9974852224702704   T   T   T
  0.3543024874345570  0.1464797504256855  0.9981031190279809   T   T   T
  0.3952656835164543  0.1039138854436060  0.9995905233915511   T   T   T
  0.4783618183922891  0.1468767709133867  0.0001324515379970   T   T   T
  0.5201932059876434  0.1047147321875716  0.0004967524719187   T   T   T
  0.6032873846126452  0.1473248543010040  0.0006784122872512   T   T   T
  0.6450801825386224  0.1049201728043197  0.0002837538879867   T   T   T
  0.7282623335242105  0.1466743359589787  0.0002716178434387   T   T   T
  0.7702057425960580  0.1047271023959183 -0.0004107143034446   T   T   T
  0.8534761088560255  0.1461787416950909  0.9994968548036879   T   T   T
  0.8952724041944793  0.1044313538864251  0.9989464309520383   T   T   T
  0.9786565160044538  0.1458035865861515  0.9987227567403147   T   T   T
  0.0204728439640381  0.2292053624332920  0.9986804397535087   T   T   T
  0.1037003173591360  0.2701831831234723  0.9980370244328455   T   T   T
  0.1449382523459429  0.2281783957841473  0.9973344173462892   T   T   T
  0.2279717286439127  0.2691625127166581  0.9961732457478459   T   T   T
  0.2692962164295881  0.2283043303773457  0.9952985435268876   T   T   T
  0.3947617939515581  0.2288715754340886  0.9971184298261043   T   T   T
  0.5187499392254017  0.2296753866900842  0.0001224492792235   T   T   T
  0.6014574623284109  0.2737941740298237  0.0008981300619299   T   T   T
  0.6438096436293348  0.2309779917829560  0.0009549082663886   T   T   T
  0.7272897706824627  0.2724187768410494  0.0009552604030201   T   T   T
  0.7694329479416953  0.2302810027515681  0.0006299228090435   T   T   T
  0.8528915388885387  0.2714250731986794  0.0002121237622788   T   T   T
  0.8951139256468005  0.2296748392708285  0.9997370418640229   T   T   T
  0.9783382719991439  0.2707756280616277  0.9992254268376051   T   T   T
  0.0204014386432307  0.3542010735743923  0.9992994176943935   T   T   T
  0.1036443625645870  0.3951840409111960  0.9991787510236715   T   T   T
  0.1459679924127318  0.3539747090383447  0.9985169418405750   T   T   T
  0.2284345932780371  0.3943438901231620  0.9987094199588928   T   T   T
  0.3496055552552486  0.3907154423027184  0.0017418489676313   T   T   T
  0.3912783405615960  0.3504587109807050  0.9971355978558850   T   T   T
  0.5164711963938732  0.3551799933699136 -0.0017405810224645   T   T   T
  0.6428436443244332  0.3568207574451562  0.0013743689987685   T   T   T
  0.7258220587767737  0.3982248770518899  0.0009289352237754   T   T   T
  0.7685757302478755  0.3558436614108783  0.0007663728858963   T   T   T
  0.8522726217086163  0.3963924208418240  0.0001870728234975   T   T   T
  0.8945098778478858  0.3546423138321583  0.0000275111428387   T   T   T
  0.9782717555467664  0.3958409765634282  0.9996578997291558   T   T   T
  0.0208269990617463  0.4790347531463302  0.9997300280816062   T   T   T
  0.1045956816381099  0.5201772402516193  0.9999919450574961   T   T   T
  0.1466958238551537  0.4783342359333220  0.9998443794925310   T   T   T
  0.2294754024175115  0.5187066541072608  0.0005636730843497   T   T   T
  0.3548074834221274  0.5160959431998231  0.0067108735940516   T   T   T
  0.6446648683490599  0.4832092368427335  0.0078820395792939   T   T   T
  0.7699852276993521  0.4810917778215968  0.9999622147666303   T   T   T
  0.8528829061235560  0.5214564983873714  0.9993915934815027   T   T   T
  0.8949352913071167  0.4795781380145548  0.9996877403072587   T   T   T
  0.9786774440915478  0.5207179363252338  0.9996404530461056   T   T   T
  0.0213243958639437  0.6039646114098586  0.9995960139567153   T   T   T
  0.1050690159553317  0.6452039008160219  0.0000717263365868   T   T   T
  0.1472305346714073  0.6033238876573812  0.0004145457353252   T   T   T
  0.2307922183363305  0.6438664159810675  0.0011479879791846   T   T   T
  0.2734536441782126  0.6014347084157475  0.0017934527952505   T   T   T
  0.3563906581048784  0.6426347234973768  0.0030320624026388   T   T   T
  0.4835096892745249  0.6436405146183761  0.0034258311125682   T   T   T
  0.6510266556350817  0.6083444378251511  0.0040106939506361   T   T   T
  0.7712817246512861  0.6049825375345950  0.9988394687649785   T   T   T
  0.8538444886434697  0.6458193217055522  0.9982841520296878   T   T   T
  0.8960598540325416  0.6045344114817057  0.9988689911794848   T   T   T
  0.9793874688773632  0.6456305711794345  0.9991100202871005   T   T   T
  0.0215633536048964  0.7290481668029626  0.9989927927052205   T   T   T
  0.1047889730824834  0.7702860270781664  0.9996044350986218   T   T   T
  0.1467701530735485  0.7283321851629457  0.0001819234373876   T   T   T
  0.2302501565844279  0.7695267528256011  0.0006079706703383   T   T   T
  0.2722083171635133  0.7273459514799194  0.0011204491353350   T   T   T
  0.3556162869327548  0.7686290525432935  0.0010375957538080   T   T   T
  0.3977421909052392  0.7258232384011650  0.0014803279192371   T   T   T
  0.4805255456445663  0.7695609229770092 -0.0002533185394591   T   T   T
  0.6046127805454747  0.7693570072753146  0.9978362333824462   T   T   T
  0.7311031287791879  0.7718299848703651  0.9966778320190619   T   T   T
  0.7732316382493448  0.7311587768146431  0.9967696328988783   T   T   T
  0.8553451466808476  0.7716456067173576  0.9970422298712527   T   T   T
  0.8965480828742405  0.7295396714873131  0.9976575936655075   T   T   T
  0.9795405514997307  0.7706249324439322  0.9982904785158169   T   T   T
  0.0213470817977501  0.8541591906092534  0.9983772255206068   T   T   T
  0.1046027319562873  0.8954736293964427  0.9988881784206747   T   T   T
  0.1463563172378825  0.8537134734414441  0.9995135250595145   T   T   T
  0.2297041157601016  0.8953145366957931 -0.0000732264944131   T   T   T
  0.2714773392488398  0.8530883157597025  0.0003884795210808   T   T   T
  0.3545688391297194  0.8946703447729641  0.0003747992734002   T   T   T
  0.3963225105959112  0.8523310526990553  0.0004146121013271   T   T   T
  0.4794716337037399  0.8947258495028559 -0.0001448190121324   T   T   T
  0.5211035946408602  0.8523590287076209 -0.0007969130927905   T   T   T
  0.6047144951598804  0.8955588366969622  0.9984421850470345   T   T   T
  0.6458229392019669  0.8535430013658175  0.9976560103400480   T   T   T
  0.7292871521301215  0.8955796704999633  0.9974234139413644   T   T   T
  0.7721226943183334  0.8550239081753407  0.9969628446851109   T   T   T
  0.8549995987799101  0.8965823397409095  0.9973138660576788   T   T   T
  0.8965726500129552  0.8548534613454568  0.9973086616722850   T   T   T
  0.9797988469879109  0.8960227148503708  0.9980387791901982   T   T   T
  0.6484129682802431  0.7315202727074287  0.9972291069419196   T   T   T
  0.5284425619949901  0.6073008587489842  0.0076472998564712   T   T   T
  0.3521388709850335  0.2679361314759040  0.9930174596097973   T   T   T
  0.4771214893599676  0.2718897742558733  0.9991430312812525   T   T   T
  0.2673015767474237  0.3519533751043524  0.9965849022355767   T   T   T
  0.4712967753639110  0.3893160863031251 -0.0009603303835672   T   T   T
  0.5995230147729597  0.4001028855105930  0.0021990593299064   T   T   T
  0.2713899140076142  0.4766488069534314  0.0001226592914438   T   T   T
  0.3878399369095676  0.4705684803673421  0.0126949157270266   T   T   T
  0.6120237218525230  0.5306059704136389  0.0137401754637592   T   T   T
  0.7281201924174540  0.5229118996610185  0.0001553897257145   T   T   T
  0.3988433998723808  0.5991635777839748  0.0053423415206988   T   T   T
  0.6106000240734918  0.6492489938090119  0.0009647450683284   T   T   T
  0.7323935561650382  0.6483103878233177  0.9975410088616763   T   T   T
  0.5213510731814799  0.7275087142527061  0.9990172679760565   T   T   T
  0.4986900120542901  0.4994093301538988  0.0281482540760207   T   T   T
 
  0.00000000E+00  0.00000000E+00  0.00000000E+00
  0.00000000E+00  0.00000000E+00  0.00000000E+00
  0.00000000E+00  0.00000000E+00  0.00000000E+00
  0.00000000E+00  0.00000000E+00  0.00000000E+00
  0.00000000E+00  0.00000000E+00  0.00000000E+00
  0.00000000E+00  0.00000000E+00  0.00000000E+00
  0.00000000E+00  0.00000000E+00  0.00000000E+00
  0.00000000E+00  0.00000000E+00  0.00000000E+00
  0.00000000E+00  0.00000000E+00  0.00000000E+00
  0.00000000E+00  0.00000000E+00  0.00000000E+00
  0.00000000E+00  0.00000000E+00  0.00000000E+00
  0.00000000E+00  0.00000000E+00  0.00000000E+00
  0.00000000E+00  0.00000000E+00  0.00000000E+00
  0.00000000E+00  0.00000000E+00  0.00000000E+00
  0.00000000E+00  0.00000000E+00  0.00000000E+00
  0.00000000E+00  0.00000000E+00  0.00000000E+00
  0.00000000E+00  0.00000000E+00  0.00000000E+00
  0.00000000E+00  0.00000000E+00  0.00000000E+00
  0.00000000E+00  0.00000000E+00  0.00000000E+00
  0.00000000E+00  0.00000000E+00  0.00000000E+00
  0.00000000E+00  0.00000000E+00  0.00000000E+00
  0.00000000E+00  0.00000000E+00  0.00000000E+00
  0.00000000E+00  0.00000000E+00  0.00000000E+00
  0.00000000E+00  0.00000000E+00  0.00000000E+00
  0.00000000E+00  0.00000000E+00  0.00000000E+00
  0.00000000E+00  0.00000000E+00  0.00000000E+00
  0.00000000E+00  0.00000000E+00  0.00000000E+00
  0.00000000E+00  0.00000000E+00  0.00000000E+00
  0.00000000E+00  0.00000000E+00  0.00000000E+00
  0.00000000E+00  0.00000000E+00  0.00000000E+00
  0.00000000E+00  0.00000000E+00  0.00000000E+00
  0.00000000E+00  0.00000000E+00  0.00000000E+00
  0.00000000E+00  0.00000000E+00  0.00000000E+00
  0.00000000E+00  0.00000000E+00  0.00000000E+00
  0.00000000E+00  0.00000000E+00  0.00000000E+00
  0.00000000E+00  0.00000000E+00  0.00000000E+00
  0.00000000E+00  0.00000000E+00  0.00000000E+00
  0.00000000E+00  0.00000000E+00  0.00000000E+00
  0.00000000E+00  0.00000000E+00  0.00000000E+00
  0.00000000E+00  0.00000000E+00  0.00000000E+00
  0.00000000E+00  0.00000000E+00  0.00000000E+00
  0.00000000E+00  0.00000000E+00  0.00000000E+00
  0.00000000E+00  0.00000000E+00  0.00000000E+00
  0.00000000E+00  0.00000000E+00  0.00000000E+00
  0.00000000E+00  0.00000000E+00  0.00000000E+00
  0.00000000E+00  0.00000000E+00  0.00000000E+00
  0.00000000E+00  0.00000000E+00  0.00000000E+00
  0.00000000E+00  0.00000000E+00  0.00000000E+00
  0.00000000E+00  0.00000000E+00  0.00000000E+00
  0.00000000E+00  0.00000000E+00  0.00000000E+00
  0.00000000E+00  0.00000000E+00  0.00000000E+00
  0.00000000E+00  0.00000000E+00  0.00000000E+00
  0.00000000E+00  0.00000000E+00  0.00000000E+00
  0.00000000E+00  0.00000000E+00  0.00000000E+00
  0.00000000E+00  0.00000000E+00  0.00000000E+00
  0.00000000E+00  0.00000000E+00  0.00000000E+00
  0.00000000E+00  0.00000000E+00  0.00000000E+00
  0.00000000E+00  0.00000000E+00  0.00000000E+00
  0.00000000E+00  0.00000000E+00  0.00000000E+00
  0.00000000E+00  0.00000000E+00  0.00000000E+00
  0.00000000E+00  0.00000000E+00  0.00000000E+00
  0.00000000E+00  0.00000000E+00  0.00000000E+00
  0.00000000E+00  0.00000000E+00  0.00000000E+00
  0.00000000E+00  0.00000000E+00  0.00000000E+00
  0.00000000E+00  0.00000000E+00  0.00000000E+00
  0.00000000E+00  0.00000000E+00  0.00000000E+00
  0.00000000E+00  0.00000000E+00  0.00000000E+00
  0.00000000E+00  0.00000000E+00  0.00000000E+00
  0.00000000E+00  0.00000000E+00  0.00000000E+00
  0.00000000E+00  0.00000000E+00  0.00000000E+00
  0.00000000E+00  0.00000000E+00  0.00000000E+00
  0.00000000E+00  0.00000000E+00  0.00000000E+00
  0.00000000E+00  0.00000000E+00  0.00000000E+00
  0.00000000E+00  0.00000000E+00  0.00000000E+00
  0.00000000E+00  0.00000000E+00  0.00000000E+00
  0.00000000E+00  0.00000000E+00  0.00000000E+00
  0.00000000E+00  0.00000000E+00  0.00000000E+00
  0.00000000E+00  0.00000000E+00  0.00000000E+00
  0.00000000E+00  0.00000000E+00  0.00000000E+00
  0.00000000E+00  0.00000000E+00  0.00000000E+00
  0.00000000E+00  0.00000000E+00  0.00000000E+00
  0.00000000E+00  0.00000000E+00  0.00000000E+00
  0.00000000E+00  0.00000000E+00  0.00000000E+00
  0.00000000E+00  0.00000000E+00  0.00000000E+00
  0.00000000E+00  0.00000000E+00  0.00000000E+00
  0.00000000E+00  0.00000000E+00  0.00000000E+00
  0.00000000E+00  0.00000000E+00  0.00000000E+00
  0.00000000E+00  0.00000000E+00  0.00000000E+00
  0.00000000E+00  0.00000000E+00  0.00000000E+00
  0.00000000E+00  0.00000000E+00  0.00000000E+00
  0.00000000E+00  0.00000000E+00  0.00000000E+00
  0.00000000E+00  0.00000000E+00  0.00000000E+00
  0.00000000E+00  0.00000000E+00  0.00000000E+00
  0.00000000E+00  0.00000000E+00  0.00000000E+00
  0.00000000E+00  0.00000000E+00  0.00000000E+00
  0.00000000E+00  0.00000000E+00  0.00000000E+00
  0.00000000E+00  0.00000000E+00  0.00000000E+00
  0.00000000E+00  0.00000000E+00  0.00000000E+00
  0.00000000E+00  0.00000000E+00  0.00000000E+00
  0.00000000E+00  0.00000000E+00  0.00000000E+00
  0.00000000E+00  0.00000000E+00  0.00000000E+00
  0.00000000E+00  0.00000000E+00  0.00000000E+00
  0.00000000E+00  0.00000000E+00  0.00000000E+00
  0.00000000E+00  0.00000000E+00  0.00000000E+00
  0.00000000E+00  0.00000000E+00  0.00000000E+00
  0.00000000E+00  0.00000000E+00  0.00000000E+00
  0.00000000E+00  0.00000000E+00  0.00000000E+00
  0.00000000E+00  0.00000000E+00  0.00000000E+00
  0.00000000E+00  0.00000000E+00  0.00000000E+00
  0.00000000E+00  0.00000000E+00  0.00000000E+00
  0.00000000E+00  0.00000000E+00  0.00000000E+00
  0.00000000E+00  0.00000000E+00  0.00000000E+00
  0.00000000E+00  0.00000000E+00  0.00000000E+00
  0.00000000E+00  0.00000000E+00  0.00000000E+00
  0.00000000E+00  0.00000000E+00  0.00000000E+00
  0.00000000E+00  0.00000000E+00  0.00000000E+00
  0.00000000E+00  0.00000000E+00  0.00000000E+00
  0.00000000E+00  0.00000000E+00  0.00000000E+00
  0.00000000E+00  0.00000000E+00  0.00000000E+00
  0.00000000E+00  0.00000000E+00  0.00000000E+00
  0.00000000E+00  0.00000000E+00  0.00000000E+00
  0.00000000E+00  0.00000000E+00  0.00000000E+00
  0.00000000E+00  0.00000000E+00  0.00000000E+00
  0.00000000E+00  0.00000000E+00  0.00000000E+00
  0.00000000E+00  0.00000000E+00  0.00000000E+00
  0.00000000E+00  0.00000000E+00  0.00000000E+00
  0.00000000E+00  0.00000000E+00  0.00000000E+00
  0.00000000E+00  0.00000000E+00  0.00000000E+00
  0.00000000E+00  0.00000000E+00  0.00000000E+00
  0.00000000E+00  0.00000000E+00  0.00000000E+00
  0.00000000E+00  0.00000000E+00  0.00000000E+00
  0.00000000E+00  0.00000000E+00  0.00000000E+00
  0.00000000E+00  0.00000000E+00  0.00000000E+00
  0.00000000E+00  0.00000000E+00  0.00000000E+00
  0.00000000E+00  0.00000000E+00  0.00000000E+00
  0.00000000E+00  0.00000000E+00  0.00000000E+00
