H    C    N    Ru
   1.00000000000000     
  17.0990259999999985  -9.8721239999999995   0.0000000000000000
   0.0000000000000000  19.7442530000000005   0.0000000000000000
   0.0000000000000000   0.0000000000000000  20.0000000000000000
H    C    N    Ru
8  115  14  1  
Selective dynamics
Direct
  0.3371541878543937  0.4192860586793773  0.1701143501318034 T T T
  0.4239065827247898  0.4718393552283752  0.2186257773360336 T T T
  0.3660293606340227  0.3679228913236282  0.2255568495908922 T T T
  0.4614181568707884  0.5382708604391340  0.1133116842625405 T T T
  0.4003873578030724  0.3526760375980959  0.1075287628808305 T T T
  0.5484747840049394  0.4692083795255609  0.1842936480382866 T T T
  0.5580602641943273  0.5648850941381703  0.1157197478936499 T T T
  0.5414413505370275  0.4015802029908917  0.1186036593001141 T T T
  0.3882472305547933  0.4176461626237595  0.1903388166257055 T T T
  0.4350515485608548  0.4074712778955201  0.1351900727546875 T T T
  0.5168594503880937  0.4355832118470730  0.1402009294118609 T T T
  0.0211459471573290  0.9785237738682248  0.9856965268925229 T T T
  0.1044476122482068  0.0202210496928190  0.9852553925409034 T T T
  0.1461801942503598  0.9786856482036780  0.9867166904512238 T T T
  0.2298899654794072  0.0209948179721786  0.9873383342596326 T T T
  0.2711265410435730  0.9785770527985832  0.9901349379565636 T T T
  0.3545977441182140  0.0207520965087810  0.9916991612744740 T T T
  0.3961594429952814  0.9783696672666008  0.9938182436992152 T T T
  0.4792007595862395  0.0206778935658375  0.9947667135011656 T T T
  0.5210316227748829  0.9782558666254692  0.9954601003551040 T T T
  0.6040947509661624  0.0206042961318636  0.9951846324286466 T T T
  0.6456788018863027  0.9782393309947244  0.9941905808318940 T T T
  0.7291471186078113  0.0203893857595445  0.9925704184864744 T T T
  0.7704029763344252  0.9779726324333392  0.9903479241341092 T T T
  0.8540859367839053  0.0202393193943973  0.9886272035460762 T T T
  0.8958530483969054  0.9787341928691076  0.9870210475090064 T T T
  0.9791519969937984  0.0204365880406185  0.9858879781304308 T T T
  0.0208087744055412  0.1037323360403534  0.9860956048744280 T T T
  0.1046256972452009  0.1455877820587453  0.9850970646091232 T T T
  0.1462641462548746  0.1040398839921224  0.9843785658821804 T T T
  0.2294572302201156  0.1460964658432422  0.9841322965251788 T T T
  0.2712265034321789  0.1043231832068641  0.9859328433837460 T T T
  0.3548718800948114  0.1471337805462255  0.9882438090440924 T T T
  0.3957984447720043  0.1041664183497479  0.9912517122318696 T T T
  0.4787887375544310  0.1468691471384279  0.9933843490691951 T T T
  0.5205072362986736  0.1045482526530385  0.9947597782025104 T T T
  0.6037510114807749  0.1469592812545654  0.9957731842553028 T T T
  0.6455170604863137  0.1045599903217321  0.9954935553666326 T T T
  0.7285755583996333  0.1460907931001410  0.9951019268590510 T T T
  0.7704905541941822  0.1038330607531835  0.9932156840817356 T T T
  0.8539078684716688  0.1455894221047212  0.9919768202969764 T T T
  0.8957268984269111  0.1037722425781456  0.9894328306287968 T T T
  0.9792584415462712  0.1454392897776240  0.9881824708031988 T T T
  0.0214861545529445  0.2291122891933352  0.9899767535295732 T T T
  0.1047958624891943  0.2704744240354802  0.9890713363355612 T T T
  0.1465695742152031  0.2287555929476568  0.9860178967414086 T T T
  0.2297890585656524  0.2703585506366049  0.9848298336057468 T T T
  0.2709530744955669  0.2293321266807924  0.9835844430601248 T T T
  0.3957936877934655  0.2298470396782022  0.9881241228356172 T T T
  0.5194783805710500  0.2300464024129802  0.9939867431598974 T T T
  0.6019494615094779  0.2733617023838177  0.9960209678130796 T T T
  0.6442863742939372  0.2305222474470788  0.9964563688333128 T T T
  0.7277182387104426  0.2718378843305645  0.9971118829171972 T T T
  0.7698511079633944  0.2296783000858334  0.9961560847513988 T T T
  0.8534378801040532  0.2709409264277884  0.9959044607049912 T T T
  0.8956415823276195  0.2290046928495800  0.9936392013153298 T T T
  0.9790759050723140  0.2703527390537325  0.9930283044684206 T T T
  0.0212040860285528  0.3537980151887550  0.9953059014178433 T T T
  0.1045858111658893  0.3950120217952103  0.9952156559013872 T T T
  0.1474581054639545  0.3540706499700165  0.9921914175210280 T T T
  0.2301469654045113  0.3950459551079877  0.9922029064208072 T T T
  0.3535990956448057  0.3939087220986597  0.9900188770097642 T T T
  0.3947742174792167  0.3534295471058507  0.9867748086243096 T T T
  0.5166343416534720  0.3566283024706131  0.9925004425621452 T T T
  0.6431973667168697  0.3564197617136982  0.9969776211870356 T T T
  0.7262569703741156  0.3976248208307444  0.9981727427886706 T T T
  0.7690620359955211  0.3552804691626156  0.9980827058023776 T T T
  0.8526379884507235  0.3958055359750264  0.9983394297316384 T T T
  0.8949777959106774  0.3539948115441879  0.9973285012708628 T T T
  0.9789101918744660  0.3954195875312909  0.9972082926139018 T T T
  0.0212649290192009  0.4785126928991470  0.9981809923983962 T T T
  0.1050773639877415  0.5198315193538748  0.9981068838688102 T T T
  0.1472874926164828  0.4780200615903374  0.9970664207156816 T T T
  0.2304162543012046  0.5186770777090637  0.9972436014211178 T T T
  0.3565878384176230  0.5158916858048902  0.9958056496125413 T T T
  0.6434153789385878  0.4831599726957249  0.9992775024990080 T T T
  0.7697732284030301  0.4801869156154974  0.9982523375356940 T T T
  0.8529141623063077  0.5208663198644081  0.9981942754501852 T T T
  0.8951326403552882  0.4790826231046001  0.9986145549580298 T T T
  0.9789597824678058  0.5204112219387172  0.9984666945247196 T T T
  0.0213192291922538  0.6034930552864702  0.9977398668081908 T T T
  0.1052539225278974  0.6449279373100228  0.9974819272216948 T T T
  0.1475631590051399  0.6030996999201963  0.9981840961869460 T T T
  0.2311449499234759  0.6436257680572008  0.9981321147421036 T T T
  0.2739441622153604  0.6012846432384149  0.9982343771942142 T T T
  0.3569809745217775  0.6425171212143951  0.9983843684974228 T T T
  0.4834167354641760  0.6423743572794011  0.9983871374320068 T T T
  0.6061616187850236  0.6461802471694527  0.9963408791846824 T T T
  0.6471360224372142  0.6054618347456989  0.9977466675386080 T T T
  0.7701337972334602  0.6039477951294004  0.9949914501128015 T T T
  0.8528531820792848  0.6449428251401093  0.9944379114070510 T T T
  0.8956482737142482  0.6039237744966749  0.9967436191500304 T T T
  0.9790429739340534  0.6451508921601598  0.9963828053178980 T T T
  0.0211728369391445  0.7286107102726738  0.9938917759600088 T T T
  0.1046314227171054  0.7699485316104003  0.9936990013527558 T T T
  0.1468009995567149  0.7279953366351551  0.9958674775054448 T T T
  0.2303845155227501  0.7692762697214680  0.9959088101276032 T T T
  0.2724984996427993  0.7270963630279597  0.9973576382834850 T T T
  0.3559300677634213  0.7684222001121657  0.9972885698982000 T T T
  0.3982514078868037  0.7255503987353229  0.9978449216134504 T T T
  0.4807918343464219  0.7688809543486197  0.9968818769405224 T T T
  0.6044927335654734  0.7692097218974985  0.9935135491595568 T T T
  0.7293388972878246  0.7697027992790263  0.9886400833658072 T T T
  0.7705263029566000  0.7286905582801673  0.9890300703300916 T T T
  0.8537330504401767  0.7702668866534815  0.9890620219680082 T T T
  0.8954937507995440  0.7285275976420079  0.9913830480078564 T T T
  0.9788056966453056  0.7698864000725563  0.9913187340829692 T T T
  0.0210323030989098  0.8535405064318139  0.9887614762148572 T T T
  0.1045521324741807  0.8951819525317825  0.9887375917504330 T T T
  0.1463626360441991  0.8533562802537566  0.9912648746090564 T T T
  0.2297909479643872  0.8951282163773744  0.9918008516758678 T T T
  0.2716738309835747  0.8528683043963026  0.9942320588739320 T T T
  0.3547293654992754  0.8944021977138559  0.9947886326872550 T T T
  0.3964738203487984  0.8520095666112296  0.9962136304960784 T T T
  0.4797223745037181  0.8943955321222965  0.9959923555267683 T T T
  0.5214699533598415  0.8520840942030243  0.9959678425358364 T T T
  0.6044678937743160  0.8948418378581227  0.9945014334935732 T T T
  0.6454237048380049  0.8519023786170599  0.9927017436914882 T T T
  0.7290571924329289  0.8946389344857157  0.9901342116699356 T T T
  0.7708722134320586  0.8529202283978253  0.9884267797423252 T T T
  0.8540452224761040  0.8949317052957821  0.9873273007179524 T T T
  0.8956877762300035  0.8534000103806865  0.9875236211156272 T T T
  0.9794947839121626  0.8952469151012149  0.9870642416736654 T T T
  0.3544798363685967  0.2704210929837533  0.9836379021062964 T T T
  0.4779644565555752  0.2724345789269936  0.9925414984210232 T T T
  0.2705921323599074  0.3536459344620961  0.9866671009427446 T T T
  0.4752648158703228  0.3929753447518563  0.9914812138889648 T T T
  0.6004130853774466  0.3992729978583497  0.9952887971326814 T T T
  0.2726104356470193  0.4771517865092492  0.9959384208612184 T T T
  0.3922037469122753  0.4736513818238408  0.9989936258594579 T T T
  0.6083585924888716  0.5253776520959090  0.0056518703532313 T T T
  0.7276635233676969  0.5218069021946335  0.9978234193546780 T T T
  0.3997961165170592  0.5996169571195504  0.9974515369848732 T T T
  0.5260034703012051  0.6069339186687879  0.0030954064061506 T T T
  0.7296700481509507  0.6453005036748984  0.9907641940333932 T T T
  0.5223301592510667  0.7265084046303548  0.9967224988205564 T T T
  0.6460041453583518  0.7287982177162032  0.9897059773005746 T T T
  0.4982959136258222  0.5018994022042941  0.0639274519624053 T T T
