H    C    N    Os
   1.00000000000000     
  17.0990250000000010  -9.8721270000000008   0.0000000000000000
   0.0000000000000000  19.7442530000000005   0.0000000000000000
   0.0000000000000000   0.0000000000000000  20.0000000000000000
H    C    N    Ru
8  115  14  1  
Selective dynamics
Direct
  0.4569646117489207  0.3666376813701546  0.1542531020271683 T T T
  0.4519731664941488  0.4400282684048937  0.2019412368203802 T T T
  0.5228857090276610  0.4125713401129096  0.2219277458253981 T T T
  0.4431898407026273  0.4927741215412542  0.1035105337805519 T T T
  0.5936353069705279  0.4680137948573416  0.1174875454746263 T T T
  0.6258462139902667  0.5588486497469070  0.2147344474217499 T T T
  0.5574693183900783  0.5861483923276349  0.1859504326050636 T T T
  0.6428601990814795  0.6105005416894383  0.1380628148630692 T T T
  0.4923735972472880  0.4228165538659062  0.1801455487806456 T T T
  0.5514160844268788  0.4862935198975084  0.1332574427342794 T T T
  0.5968354738932633  0.5648928323801072  0.1695626097362428 T T T
  0.0205562862391073  0.9781313583999948  0.9891874318607140 T T T
  0.1036625893859513  0.0194522623364990  0.9895843499835700 T T T
  0.1454141468563450  0.9778706747955140  0.9911501052646530 T T T
  0.2289852363140077  0.0198268554268554  0.9925405195922939 T T T
  0.2704747450498863  0.9777017808463292  0.9945737410943940 T T T
  0.3537703946130725  0.0196860418660132  0.9960652303259330 T T T
  0.3955620535733718  0.9776394835758100  0.9974199178796740 T T T
  0.4786340613379721  0.0202789502617216  0.9981705178182430 T T T
  0.5206439636020292  0.9781243384146762  0.9983746347836810 T T T
  0.6036757368496867  0.0207030690053012  0.9981463754283610 T T T
  0.6454425132133176  0.9785676093993172  0.9971706906950090 T T T
  0.7288208614020171  0.0206152102136010  0.9956901862705680 T T T
  0.7702402301921234  0.9784114843661365  0.9934607848749299 T T T
  0.8537932325051856  0.0204221076691176  0.9917214209241610 T T T
  0.8955917308782289  0.9788637887771070  0.9900194938986280 T T T
  0.9786834030103694  0.0202146190938853  0.9892587965085260 T T T
  0.0202284026694453  0.1034921277146725  0.9896629959012320 T T T
  0.1038513235318564  0.1449523318134785  0.9893432056832679 T T T
  0.1453062225981096  0.1030941494278796  0.9893531993580630 T T T
  0.2281675784795806  0.1446188532850244  0.9904482630286430 T T T
  0.2702551772632403  0.1031433280859043  0.9922716388854490 T T T
  0.3536348588679775  0.1453050726995621  0.9944890981588370 T T T
  0.3948724221301654  0.1030960601024564  0.9961320692053190 T T T
  0.4779808836147465  0.1462762467743517  0.9977513876040724 T T T
  0.5198647841208264  0.1041139618328847  0.9984739609709372 T T T
  0.6030567141381389  0.1467219183324608  0.9992379542638172 T T T
  0.6450163618402713  0.1045502270073404  0.9985973457662530 T T T
  0.7280694898806093  0.1461611205260109  0.9981056184612170 T T T
  0.7701261736564278  0.1040592006196522  0.9962341421253220 T T T
  0.8533673340725727  0.1456183861202397  0.9948307960728130 T T T
  0.8952941019013639  0.1038298754496070  0.9924596968349720 T T T
  0.9787547908120484  0.1453307947409676  0.9912474696426270 T T T
  0.0209719540396805  0.2289609589704807  0.9926350908218460 T T T
  0.1041707108994158  0.2700828910500538  0.9919039004006860 T T T
  0.1457061423218241  0.2280190317576530  0.9899643238195530 T T T
  0.2288190540954547  0.2693422611281962  0.9897653287125050 T T T
  0.2695926699783475  0.2276756394407729  0.9905523095616290 T T T
  0.3945633067728189  0.2282977858318707  0.9957449388753190 T T T
  0.5183726855542417  0.2292007816410166  0.9987973973329765 T T T
  0.6010812587898134  0.2731146065241380  0.0007531854487112 T T T
  0.6435590548828966  0.2303688862114825  0.0002419245342095 T T T
  0.7269492603861835  0.2717580597077406  0.0002802381537239 T T T
  0.7692610109249336  0.2296645587813420  0.9989936674440471 T T T
  0.8528182934924559  0.2708674292468400  0.9982935099713890 T T T
  0.8951262998893936  0.2290757171844124  0.9961045834415490 T T T
  0.9785304873465216  0.2702788155440746  0.9953321524623590 T T T
  0.0206762104546314  0.3536072565613089  0.9973633666996500 T T T
  0.1041253517860018  0.3946985473842889  0.9973722795558621 T T T
  0.1469497652310041  0.3537849010937968  0.9946361522450470 T T T
  0.2295838883584112  0.3944881551146783  0.9946909586475100 T T T
  0.3517264796666270  0.3911204632423997  0.9960765805511153 T T T
  0.3911484196128824  0.3492084888700048  0.0025445687110599 T T T
  0.5156120773742108  0.3542994596539399  0.0083944073442031 T T T
  0.6422063860816025  0.3560359505226292  0.0020785766446308 T T T
  0.7253019470712646  0.3974867089252819  0.0015538227334478 T T T
  0.7682332626083475  0.3552722165144798  0.0008866329466961 T T T
  0.8519804469575482  0.3957623278480725  0.0005375915180605 T T T
  0.8944042563251364  0.3539916702151257  0.9994135318073620 T T T
  0.9783192066821094  0.3952059306488264  0.9991225748426950 T T T
  0.0208485193158998  0.4783278541915795  0.9999800061371400 T T T
  0.1048030339125350  0.5194825572357760  0.9999330650157487 T T T
  0.1471389691311644  0.4776558072393559  0.9991483593132556 T T T
  0.2303109877252299  0.5181756417104855  0.9997036669841030 T T T
  0.3565391986526156  0.5160150464029003  0.9991083558080660 T T T
  0.6430069289008935  0.4826389910984767  0.9997940183990560 T T T
  0.7689602764390637  0.4803126051562355  0.0008937700758095 T T T
  0.8521153763072777  0.5207217817731741  0.0002730990869491 T T T
  0.8944519070345049  0.4788764707163176  0.0006325899873964 T T T
  0.9784301082292304  0.5200778547502891  0.0002936441325299 T T T
  0.0209477559860164  0.6031750971398820  0.9995613257461829 T T T
  0.1048220718411751  0.6443875035058944  0.9994214406071210 T T T
  0.1472532366831623  0.6026287348263190  0.0000678260065378 T T T
  0.2309522774594821  0.6431414608264125  0.0002762625137563 T T T
  0.2738866863203014  0.6008257167529695  0.0007839060651392 T T T
  0.3569242621900866  0.6422509135712756  0.0017348932465938 T T T
  0.4834730971961858  0.6440348974932301  0.0075195146517867 T T T
  0.6079998263335944  0.6488174485709376  0.0019807643475120 T T T
  0.6480035063481480  0.6074136390682844  0.9972374295259586 T T T
  0.7699318894935351  0.6038781033981100  0.9961698093212160 T T T
  0.8524524194540324  0.6446098764969462  0.9959802929057050 T T T
  0.8952644879407475  0.6037306473277927  0.9985581657302930 T T T
  0.9786496801464312  0.6448117389659906  0.9982073916690360 T T T
  0.0207857613767420  0.7281404270523076  0.9959611663252950 T T T
  0.1041500691558834  0.7693130150730303  0.9962310594214410 T T T
  0.1464251356762583  0.7275016997080826  0.9981719739551900 T T T
  0.2299794682969920  0.7686246085211438  0.9983856120407750 T T T
  0.2722065963200639  0.7264974757810860  0.9997109832387860 T T T
  0.3557375150368863  0.7679639320726532  0.9997910460953440 T T T
  0.3981985829608808  0.7253173110796850  0.0006528472224907 T T T
  0.4808354592714322  0.7691437615253460  0.9994805231175806 T T T
  0.6046946804214449  0.7700497685347989  0.9969736227751350 T T T
  0.7296317527589564  0.7705701814937771  0.9912213691192260 T T T
  0.7706444165327754  0.7291195068398413  0.9908366151024600 T T T
  0.8536205279262817  0.7703287680165957  0.9909025642062930 T T T
  0.8952291394698614  0.7283456833797783  0.9930200794836550 T T T
  0.9783597499483556  0.7694342270727778  0.9933731570857530 T T T
  0.0205389211149454  0.8530517104141475  0.9915356656187870 T T T
  0.1039236538148681  0.8944729970543344  0.9922529929587069 T T T
  0.1458735635911140  0.8526944897173934  0.9945104656924620 T T T
  0.2290967062527247  0.8941473356780812  0.9953611639041750 T T T
  0.2711939030290149  0.8521482783889194  0.9972153851014000 T T T
  0.3543052468509500  0.8938270252634146  0.9978125910388820 T T T
  0.3962161826792291  0.8516182833606788  0.9988069942107510 T T T
  0.4793939553531175  0.8942271893019156  0.9985942236772376 T T T
  0.5213115153333668  0.8521141989412014  0.9985031197825650 T T T
  0.6043538426576818  0.8953145558714855  0.9973802005294240 T T T
  0.6454726595455270  0.8528169171341299  0.9958626772127620 T T T
  0.7288981130733307  0.8950796163215400  0.9932060493512120 T T T
  0.7710129602677862  0.8535960451607651  0.9911228784457570 T T T
  0.8539707335615737  0.8952226317583241  0.9899044131845590 T T T
  0.8954554126069031  0.8534217566955296  0.9899022327886120 T T T
  0.9790458270236100  0.8948777403506307  0.9899272650131780 T T T
  0.3524171523237199  0.2674218521027576  0.9932402498902670 T T T
  0.4764849392984065  0.2713051797634129  0.9984881282994184 T T T
  0.2693288590774078  0.3523185954832242  0.9895294015121900 T T T
  0.4694293696186379  0.3863902078967912  0.0210026364684807 T T T
  0.5987468843694315  0.3986654699931807  0.0030453530857104 T T T
  0.2728218916376505  0.4766316228777593  0.9989396623716386 T T T
  0.3921131350311258  0.4719406124987249  0.9998156337687680 T T T
  0.6069915820707336  0.5265053457997970  0.0015894838607230 T T T
  0.7264880583731549  0.5218036986168189  0.0003032799022709 T T T
  0.4003805077788946  0.5995034150993429  0.0034508614033466 T T T
  0.5297588182695130  0.6110558750980494  0.0199005295396694 T T T
  0.7300091335511799  0.6459400488428416  0.9911689818992599 T T T
  0.5225370448187117  0.7267060321171731  0.9997855860798180 T T T
  0.6468876432884627  0.7307886129040506  0.9932669924279180 T T T
  0.4993502113861638  0.4988624203347031  0.0407475900505502 T T T
