H    C    N    Ru                       
   1.00000000000000     
    17.0990250000000010   -9.8721270000000008    0.0000000000000000
     0.0000000000000000   19.7442530000000005    0.0000000000000000
     0.0000000000000000    0.0000000000000000   20.0000000000000000
   H    C    N    Ru
     8   116    13     1
Selective dynamics
Direct
  0.3875261801550236  0.3977924288133186  0.1390544325895628   T   T   T
  0.4149972763586346  0.4918144311234187  0.1721889993505778   T   T   T
  0.4387202016985125  0.4281810047472835  0.2165486255644129   T   T   T
  0.5011979048606766  0.5382190502954035  0.0871649670347644   T   T   T
  0.5257225143447301  0.4363141986628183  0.1181355111080010   T   T   T
  0.5870218056579002  0.5276352114129124  0.2169126799713950   T   T   T
  0.5717668957273133  0.5988847721109914  0.1757561611419967   T   T   T
  0.6361261255859931  0.5698138570203964  0.1403772364526702   T   T   T
  0.4338652935149372  0.4481951428242546  0.1661764086145016   T   T   T
  0.5120781288111433  0.4826962474218220  0.1294409232028921   T   T   T
  0.5806124126919316  0.5486223243256343  0.1674774103380728   T   T   T
  0.0212205784158007  0.9796602800483174  0.0013271425644316   T   T   T
  0.1043260430869169  0.0207987610645524  0.0008680917207494   T   T   T
  0.1461365836760624  0.9792924002407897  0.0006916386830272   T   T   T
  0.2295346941998985  0.0211004394925204  0.9997762639808816   T   T   T
  0.2710908549232902  0.9789342595191438  0.9998291632436966   T   T   T
  0.3544357188040925  0.0208919187216706  0.9992657682114687   T   T   T
  0.3960757843399696  0.9788090974404312  0.9990974677021396   T   T   T
  0.4792790412145461  0.0212559057346937  0.9988108533056804   T   T   T
  0.5209152671586190  0.9790919628564665  0.9984258132126734   T   T   T
  0.6042002897514702  0.0217763570896346  0.9986729732031027   T   T   T
  0.6459240616509587  0.9797237455375977  0.9983389667400916   T   T   T
  0.7292321618345088  0.0217671861254091  0.9993537349879321   T   T   T
  0.7708861241442531  0.9799969295479876  0.9994813204254974   T   T   T
  0.8542302693687284  0.0217606989986365  0.0006268593469673   T   T   T
  0.8963669521881008  0.9804345777371420  0.0008717418586426   T   T   T
  0.9793838135232010  0.0215332219508071  0.0013059440710286   T   T   T
  0.0204572698745490  0.1045909250661866  0.0009016912620052   T   T   T
  0.1037228257592571  0.1457181400485810  0.9998099548395417   T   T   T
  0.1454513556002998  0.1040845063031129  0.9997736257321584   T   T   T
  0.2282964907413206  0.1454000798302336  0.9980196204912392   T   T   T
  0.2704395628657865  0.1042469287471523  0.9983493381925264   T   T   T
  0.3542966850866107  0.1464928550191474  0.9976503440750526   T   T   T
  0.3954197696614047  0.1041415169683592  0.9985520577028852   T   T   T
  0.4785485985457106  0.1470744447961132  0.9982987211189284   T   T   T
  0.5204225631354408  0.1050546634077908  0.9987345963142935   T   T   T
  0.6035135671994858  0.1477728222238245  0.9989098663575354   T   T   T
  0.6453264024927552  0.1054713081453329  0.9991759322662329   T   T   T
  0.7285080877588109  0.1472637963011760  0.9996902874513199   T   T   T
  0.7704338487349129  0.1053492455567607  0.0000336849480374   T   T   T
  0.8536662870521707  0.1467634809036802  0.0005457284175486   T   T   T
  0.8954827751721508  0.1050399075718893  0.0008992942993115   T   T   T
  0.9788350088422227  0.1463223874566904  0.0007838265355882   T   T   T
  0.0206095835990130  0.2296849213184202 -0.0000071086314791   T   T   T
  0.1037920333248697  0.2705994058050177  0.9987078669452325   T   T   T
  0.1449983923974454  0.2285210061646309  0.9982693694053082   T   T   T
  0.2279417109434384  0.2694196750513622  0.9960088220202615   T   T   T
  0.2692234399402193  0.2283774141481492  0.9956778756332172   T   T   T
  0.3946995706466218  0.2288625149444944  0.9959677436418025   T   T   T
  0.5189178918764161  0.2298005576832285  0.9977903471350655   T   T   T
  0.6016234629226892  0.2741263187050278  0.9983890779379756   T   T   T
  0.6440130252755185  0.2314358407786435  0.9988527477170974   T   T   T
  0.7274802763494754  0.2729394743868381  0.9991847632413067   T   T   T
  0.7696194373069229  0.2308394009165530  0.9996750647388061   T   T   T
  0.8530792699499822  0.2719624092745593  0.9998729739385157   T   T   T
  0.8952470426320889  0.2302058765952728  0.0002951856475984   T   T   T
  0.9785172376921497  0.2712923910775529 -0.0000059042124398   T   T   T
  0.0205228645431276  0.3546662509145946  0.9993786714176296   T   T   T
  0.1038142656266051  0.3956117783395773  0.9986221465395954   T   T   T
  0.1459737924740086  0.3543273905619925  0.9979790977250361   T   T   T
  0.2285325298469207  0.3947437291029214  0.9966623354919010   T   T   T
  0.3496191803778323  0.3909332952714422  0.9966702154666442   T   T   T
  0.3910185378732429  0.3501245976151914  0.9945311506501986   T   T   T
  0.5163091838129761  0.3549108919424913  0.9966860584246896   T   T   T
  0.6429439903941123  0.3572182521992835  0.9984768482416616   T   T   T
  0.7259698687497353  0.3987221547912261  0.9984896540645352   T   T   T
  0.7687275214240165  0.3563745432559111  0.9989152922317671   T   T   T
  0.8524417772810586  0.3969090716778720  0.9990151676465461   T   T   T
  0.8946987217258149  0.3551838716017903  0.9994569117143477   T   T   T
  0.9784505209660190  0.3963278997420358  0.9993161526449067   T   T   T
  0.0210595853152599  0.4795503365760793  0.9990300490307186   T   T   T
  0.1048108610083096  0.5206632450348673  0.9987407601727684   T   T   T
  0.1468746965199836  0.4787948486160794  0.9982880800048719   T   T   T
  0.2296126641710259  0.5191272942803568  0.9977862102106430   T   T   T
  0.3550005506557010  0.5166515007807190  0.9999281603770034   T   T   T
  0.6446556339872378  0.4839109884043803  0.9998206832860326   T   T   T
  0.7702189804225785  0.4816506747827964  0.9978715759623810   T   T   T
  0.8531313462843676  0.5219922464991611  0.9983384521000878   T   T   T
  0.8951463487985672  0.4801045836463433  0.9988064161608436   T   T   T
  0.9789087068958279  0.5212067333328269  0.9990481135140864   T   T   T
  0.0216049854711085  0.6044459434777041  0.9993007963459538   T   T   T
  0.1053505037970369  0.6456627395321790  0.9993338312993044   T   T   T
  0.1474987680020057  0.6038058641314734  0.9988518916702227   T   T   T
  0.2310932392879260  0.6443545605180250  0.9986297606636044   T   T   T
  0.2737299323082182  0.6019589580408330  0.9983156042933529   T   T   T
  0.3566785199730580  0.6431561911313495  0.9982620556894521   T   T   T
  0.4840383641565617  0.6448866707153195  0.9964377940661741   T   T   T
  0.6514378302819478  0.6092937627042724  0.9964273053096946   T   T   T
  0.7717107955403103  0.6057454707651735  0.9966653398187840   T   T   T
  0.8542703232771859  0.6464809118495711  0.9980939403732496   T   T   T
  0.8963635119848744  0.6050896564275962  0.9987165795332351   T   T   T
  0.9796947731046631  0.6461383107012382  0.9994322514538667   T   T   T
  0.0218624202921812  0.7295258449299238  0.0000435183354592   T   T   T
  0.1050893882702202  0.7707178164943393  0.0002769958495717   T   T   T
  0.1470737357343627  0.7287835961154543  0.9997544995721117   T   T   T
  0.2305414522777990  0.7699595140119877  0.9994462338439208   T   T   T
  0.2725151547594480  0.7278112706651835  0.9987739139955601   T   T   T
  0.3559409105005101  0.7690956461174706  0.9980352995683479   T   T   T
  0.3980508528747916  0.7263922920181204  0.9972889510477062   T   T   T
  0.4809690571269222  0.7703370766114606  0.9955649860584507   T   T   T
  0.6050796050599005  0.7704334000187120  0.9943766576243076   T   T   T
  0.7317128374333483  0.7728415090844255  0.9956956058778920   T   T   T
  0.7738054849412001  0.7320380101792010  0.9960612312909749   T   T   T
  0.8558192702805895  0.7724029874179088  0.9984632432856408   T   T   T
  0.8969320486015645  0.7301637558563148  0.9988690876625063   T   T   T
  0.9798942410819211  0.7711631555424445  0.0001042928401514   T   T   T
  0.0216447323657953  0.8546586440531989  0.0008622655089438   T   T   T
  0.1048548148468293  0.8958920197239869  0.0009493332580418   T   T   T
  0.1466105734493734  0.8541066777497508  0.0005738446876013   T   T   T
  0.2299354375027855  0.8956450838041402  0.0001587643175798   T   T   T
  0.2717526557466928  0.8534942742616313  0.9996058640717675   T   T   T
  0.3548514242806761  0.8950671666989480  0.9990229589070290   T   T   T
  0.3966217700087782  0.8528113664012037  0.9981614581226739   T   T   T
  0.4797685439837773  0.8952910248607407  0.9977041674094305   T   T   T
  0.5214869852038079  0.8531037266921271  0.9964367222551349   T   T   T
  0.6050911666718044  0.8963232607706446  0.9968578070927047   T   T   T
  0.6462802477718921  0.8544562721893781  0.9962596542159502   T   T   T
  0.7296837157757750  0.8963810854263942  0.9979249964533335   T   T   T
  0.7725851279353572  0.8558736915025734  0.9979578660061388   T   T   T
  0.8553810280045691  0.8973056450251076 -0.0001562732217077   T   T   T
  0.8969601958769157  0.8555524072292227 -0.0000041470940971   T   T   T
  0.9801119715028580  0.8965772758000566  0.0010021904709227   T   T   T
  0.6490881026579998  0.7327358678152203  0.9936190505970540   T   T   T
  0.5291969597174099  0.6087909958259876  0.9996908746786609   T   T   T
  0.3517757785126576  0.2675708617826026  0.9929316012855063   T   T   T
  0.4771620041183067  0.2717053966772058  0.9968624857776787   T   T   T
  0.2671924657030990  0.3521219760379426  0.9943839122210015   T   T   T
  0.4708902521898549  0.3882187108721691  0.9964526515324010   T   T   T
  0.5995657955849965  0.4002587096488738  0.9983433417345107   T   T   T
  0.2713293265211915  0.4770286424306037  0.9969930518140866   T   T   T
  0.3880919889049628  0.4712749658273394  0.0035117936248223   T   T   T
  0.6120797732823582  0.5311270252204034  0.0024065885474458   T   T   T
  0.7285717521417173  0.5235712490341314  0.9971552192885602   T   T   T
  0.3991063370377872  0.5998891188669629  0.9990431845616868   T   T   T
  0.6113737310180134  0.6507368136298244  0.9942386934161007   T   T   T
  0.7332220558944491  0.6493546593212415  0.9941007110186435   T   T   T
  0.5219260385462241  0.7286760800742967  0.9936840952048481   T   T   T
  0.4992579811783205  0.5009579317982360  0.0155753992739886   T   T   T
 
  0.00000000E+00  0.00000000E+00  0.00000000E+00
  0.00000000E+00  0.00000000E+00  0.00000000E+00
  0.00000000E+00  0.00000000E+00  0.00000000E+00
  0.00000000E+00  0.00000000E+00  0.00000000E+00
  0.00000000E+00  0.00000000E+00  0.00000000E+00
  0.00000000E+00  0.00000000E+00  0.00000000E+00
  0.00000000E+00  0.00000000E+00  0.00000000E+00
  0.00000000E+00  0.00000000E+00  0.00000000E+00
  0.00000000E+00  0.00000000E+00  0.00000000E+00
  0.00000000E+00  0.00000000E+00  0.00000000E+00
  0.00000000E+00  0.00000000E+00  0.00000000E+00
  0.00000000E+00  0.00000000E+00  0.00000000E+00
  0.00000000E+00  0.00000000E+00  0.00000000E+00
  0.00000000E+00  0.00000000E+00  0.00000000E+00
  0.00000000E+00  0.00000000E+00  0.00000000E+00
  0.00000000E+00  0.00000000E+00  0.00000000E+00
  0.00000000E+00  0.00000000E+00  0.00000000E+00
  0.00000000E+00  0.00000000E+00  0.00000000E+00
  0.00000000E+00  0.00000000E+00  0.00000000E+00
  0.00000000E+00  0.00000000E+00  0.00000000E+00
  0.00000000E+00  0.00000000E+00  0.00000000E+00
  0.00000000E+00  0.00000000E+00  0.00000000E+00
  0.00000000E+00  0.00000000E+00  0.00000000E+00
  0.00000000E+00  0.00000000E+00  0.00000000E+00
  0.00000000E+00  0.00000000E+00  0.00000000E+00
  0.00000000E+00  0.00000000E+00  0.00000000E+00
  0.00000000E+00  0.00000000E+00  0.00000000E+00
  0.00000000E+00  0.00000000E+00  0.00000000E+00
  0.00000000E+00  0.00000000E+00  0.00000000E+00
  0.00000000E+00  0.00000000E+00  0.00000000E+00
  0.00000000E+00  0.00000000E+00  0.00000000E+00
  0.00000000E+00  0.00000000E+00  0.00000000E+00
  0.00000000E+00  0.00000000E+00  0.00000000E+00
  0.00000000E+00  0.00000000E+00  0.00000000E+00
  0.00000000E+00  0.00000000E+00  0.00000000E+00
  0.00000000E+00  0.00000000E+00  0.00000000E+00
  0.00000000E+00  0.00000000E+00  0.00000000E+00
  0.00000000E+00  0.00000000E+00  0.00000000E+00
  0.00000000E+00  0.00000000E+00  0.00000000E+00
  0.00000000E+00  0.00000000E+00  0.00000000E+00
  0.00000000E+00  0.00000000E+00  0.00000000E+00
  0.00000000E+00  0.00000000E+00  0.00000000E+00
  0.00000000E+00  0.00000000E+00  0.00000000E+00
  0.00000000E+00  0.00000000E+00  0.00000000E+00
  0.00000000E+00  0.00000000E+00  0.00000000E+00
  0.00000000E+00  0.00000000E+00  0.00000000E+00
  0.00000000E+00  0.00000000E+00  0.00000000E+00
  0.00000000E+00  0.00000000E+00  0.00000000E+00
  0.00000000E+00  0.00000000E+00  0.00000000E+00
  0.00000000E+00  0.00000000E+00  0.00000000E+00
  0.00000000E+00  0.00000000E+00  0.00000000E+00
  0.00000000E+00  0.00000000E+00  0.00000000E+00
  0.00000000E+00  0.00000000E+00  0.00000000E+00
  0.00000000E+00  0.00000000E+00  0.00000000E+00
  0.00000000E+00  0.00000000E+00  0.00000000E+00
  0.00000000E+00  0.00000000E+00  0.00000000E+00
  0.00000000E+00  0.00000000E+00  0.00000000E+00
  0.00000000E+00  0.00000000E+00  0.00000000E+00
  0.00000000E+00  0.00000000E+00  0.00000000E+00
  0.00000000E+00  0.00000000E+00  0.00000000E+00
  0.00000000E+00  0.00000000E+00  0.00000000E+00
  0.00000000E+00  0.00000000E+00  0.00000000E+00
  0.00000000E+00  0.00000000E+00  0.00000000E+00
  0.00000000E+00  0.00000000E+00  0.00000000E+00
  0.00000000E+00  0.00000000E+00  0.00000000E+00
  0.00000000E+00  0.00000000E+00  0.00000000E+00
  0.00000000E+00  0.00000000E+00  0.00000000E+00
  0.00000000E+00  0.00000000E+00  0.00000000E+00
  0.00000000E+00  0.00000000E+00  0.00000000E+00
  0.00000000E+00  0.00000000E+00  0.00000000E+00
  0.00000000E+00  0.00000000E+00  0.00000000E+00
  0.00000000E+00  0.00000000E+00  0.00000000E+00
  0.00000000E+00  0.00000000E+00  0.00000000E+00
  0.00000000E+00  0.00000000E+00  0.00000000E+00
  0.00000000E+00  0.00000000E+00  0.00000000E+00
  0.00000000E+00  0.00000000E+00  0.00000000E+00
  0.00000000E+00  0.00000000E+00  0.00000000E+00
  0.00000000E+00  0.00000000E+00  0.00000000E+00
  0.00000000E+00  0.00000000E+00  0.00000000E+00
  0.00000000E+00  0.00000000E+00  0.00000000E+00
  0.00000000E+00  0.00000000E+00  0.00000000E+00
  0.00000000E+00  0.00000000E+00  0.00000000E+00
  0.00000000E+00  0.00000000E+00  0.00000000E+00
  0.00000000E+00  0.00000000E+00  0.00000000E+00
  0.00000000E+00  0.00000000E+00  0.00000000E+00
  0.00000000E+00  0.00000000E+00  0.00000000E+00
  0.00000000E+00  0.00000000E+00  0.00000000E+00
  0.00000000E+00  0.00000000E+00  0.00000000E+00
  0.00000000E+00  0.00000000E+00  0.00000000E+00
  0.00000000E+00  0.00000000E+00  0.00000000E+00
  0.00000000E+00  0.00000000E+00  0.00000000E+00
  0.00000000E+00  0.00000000E+00  0.00000000E+00
  0.00000000E+00  0.00000000E+00  0.00000000E+00
  0.00000000E+00  0.00000000E+00  0.00000000E+00
  0.00000000E+00  0.00000000E+00  0.00000000E+00
  0.00000000E+00  0.00000000E+00  0.00000000E+00
  0.00000000E+00  0.00000000E+00  0.00000000E+00
  0.00000000E+00  0.00000000E+00  0.00000000E+00
  0.00000000E+00  0.00000000E+00  0.00000000E+00
  0.00000000E+00  0.00000000E+00  0.00000000E+00
  0.00000000E+00  0.00000000E+00  0.00000000E+00
  0.00000000E+00  0.00000000E+00  0.00000000E+00
  0.00000000E+00  0.00000000E+00  0.00000000E+00
  0.00000000E+00  0.00000000E+00  0.00000000E+00
  0.00000000E+00  0.00000000E+00  0.00000000E+00
  0.00000000E+00  0.00000000E+00  0.00000000E+00
  0.00000000E+00  0.00000000E+00  0.00000000E+00
  0.00000000E+00  0.00000000E+00  0.00000000E+00
  0.00000000E+00  0.00000000E+00  0.00000000E+00
  0.00000000E+00  0.00000000E+00  0.00000000E+00
  0.00000000E+00  0.00000000E+00  0.00000000E+00
  0.00000000E+00  0.00000000E+00  0.00000000E+00
  0.00000000E+00  0.00000000E+00  0.00000000E+00
  0.00000000E+00  0.00000000E+00  0.00000000E+00
  0.00000000E+00  0.00000000E+00  0.00000000E+00
  0.00000000E+00  0.00000000E+00  0.00000000E+00
  0.00000000E+00  0.00000000E+00  0.00000000E+00
  0.00000000E+00  0.00000000E+00  0.00000000E+00
  0.00000000E+00  0.00000000E+00  0.00000000E+00
  0.00000000E+00  0.00000000E+00  0.00000000E+00
  0.00000000E+00  0.00000000E+00  0.00000000E+00
  0.00000000E+00  0.00000000E+00  0.00000000E+00
  0.00000000E+00  0.00000000E+00  0.00000000E+00
  0.00000000E+00  0.00000000E+00  0.00000000E+00
  0.00000000E+00  0.00000000E+00  0.00000000E+00
  0.00000000E+00  0.00000000E+00  0.00000000E+00
  0.00000000E+00  0.00000000E+00  0.00000000E+00
  0.00000000E+00  0.00000000E+00  0.00000000E+00
  0.00000000E+00  0.00000000E+00  0.00000000E+00
  0.00000000E+00  0.00000000E+00  0.00000000E+00
  0.00000000E+00  0.00000000E+00  0.00000000E+00
  0.00000000E+00  0.00000000E+00  0.00000000E+00
  0.00000000E+00  0.00000000E+00  0.00000000E+00
  0.00000000E+00  0.00000000E+00  0.00000000E+00
  0.00000000E+00  0.00000000E+00  0.00000000E+00
  0.00000000E+00  0.00000000E+00  0.00000000E+00
  0.00000000E+00  0.00000000E+00  0.00000000E+00
  0.00000000E+00  0.00000000E+00  0.00000000E+00
