H    C    N    Os                       
   1.00000000000000     
    17.0990250000000010   -9.8721266666666700    0.0000000000000000
     0.0000000000000000   19.7442530000000005    0.0000000000000000
     0.0000000000000000    0.0000000000000000   20.0000000000000000
   H    C    N    Ru
     8   115    14     1
Selective dynamics
Direct
  0.4391331606084531  0.3693014145623041  0.1538187982340896   T   T   T
  0.4331452548243802  0.4414781087330594  0.2027496521343955   T   T   T
  0.5008633701310186  0.4105154696099224  0.2248358862349560   T   T   T
  0.4758449275208711  0.5084993781782253  0.1046980872227727   T   T   T
  0.5760974306681512  0.4676632387310229  0.1201511884670559   T   T   T
  0.6147242207738415  0.5582325631199623  0.2187961913021798   T   T   T
  0.5477662513465593  0.5888655845846023  0.1933766033395178   T   T   T
  0.6301629757744017  0.6104048212141602  0.1425143521501779   T   T   T
  0.4738023724617835  0.4238153593099721  0.1821926119865664   T   T   T
  0.5367686725730454  0.4879609028482880  0.1385657602197791   T   T   T
  0.5848570725487483  0.5656975990975169  0.1750320262419180   T   T   T
  0.0206529145077901  0.9785904521691614  0.9917877511455241   T   T   T
  0.1038560370708459  0.0198766622537763  0.9920702405782115   T   T   T
  0.1456520484550837  0.9783430129884542  0.9934779022712937   T   T   T
  0.2291207245165179  0.0202829710507933  0.9946044013591012   T   T   T
  0.2706415529252953  0.9781247533546759  0.9965853152775048   T   T   T
  0.3540494518243828  0.0201672612916744  0.9978504504705741   T   T   T
  0.3956674048383805  0.9780766693028927  0.9990061915444766   T   T   T
  0.4789129513360580  0.0206034970797153  0.9994883457575809   T   T   T
  0.5205497059990345  0.9783964186913036  0.9995460741851994   T   T   T
  0.6038004877773899  0.0209295111607643  0.9991387775549569   T   T   T
  0.6454313460071637  0.9788500637929668  0.9980769348059130   T   T   T
  0.7288498520919000  0.0208998992193599  0.9968291964140250   T   T   T
  0.7703794557039568  0.9787464148430771  0.9949623312675581   T   T   T
  0.8538418856778279  0.0206836655457997  0.9936881115249808   T   T   T
  0.8956382493972112  0.9791525534234693  0.9923473609333990   T   T   T
  0.9788445848734372  0.0204391666410817  0.9917600856281702   T   T   T
  0.0201666095267686  0.1036613935044961  0.9920336934865307   T   T   T
  0.1035893901526500  0.1450047571690263  0.9916578894189898   T   T   T
  0.1452353005967905  0.1033097281052346  0.9916693955086027   T   T   T
  0.2282055075832116  0.1448053571764397  0.9924388048556796   T   T   T
  0.2702077747895478  0.1035851548360345  0.9940958227596360   T   T   T
  0.3540264597692991  0.1458785140243372  0.9961366968706897   T   T   T
  0.3950859397300171  0.1035328908114406  0.9978029151962979   T   T   T
  0.4782497914088275  0.1465700363866261  0.9991694842918576   T   T   T
  0.5200714993974174  0.1043993812054435  0.9996780152178790   T   T   T
  0.6032127528613779  0.1469972773219397  0.0001226585396952   T   T   T
  0.6450511645638534  0.1047193037945043  0.9994943372658580   T   T   T
  0.7281891398570052  0.1463536599742999  0.9989567077373647   T   T   T
  0.7700660034695643  0.1042345842659975  0.9973953463584394   T   T   T
  0.8534899339229931  0.1458303639336797  0.9963151900831224   T   T   T
  0.8952195582860935  0.1041168804079640  0.9943746174884768   T   T   T
  0.9786505825442494  0.1454819779626567  0.9934175536985994   T   T   T
  0.0206247655824152  0.2289595824174055  0.9945829294381114   T   T   T
  0.1038863539223957  0.2699898027612308  0.9940461215687401   T   T   T
  0.1451181533107299  0.2280062546434478  0.9923413638521349   T   T   T
  0.2282957381067031  0.2691331424019263  0.9922952703503062   T   T   T
  0.2693493901191766  0.2279750651372990  0.9924887818291572   T   T   T
  0.3946085851761316  0.2284920370857336  0.9967506358216254   T   T   T
  0.5186584481442542  0.2293744760849246  0.9999010282328542   T   T   T
  0.6014302689078650  0.2734032716689022  0.0012383892716949   T   T   T
  0.6437733858807214  0.2306578355995288  0.0008079031080436   T   T   T
  0.7272506701838699  0.2719943595339130  0.0006908939932715   T   T   T
  0.7693877401707221  0.2299010505088283  0.9996249356663484   T   T   T
  0.8529324595169075  0.2710865699991677  0.9989810306615049   T   T   T
  0.8951152508798363  0.2292598020302748  0.9973154139980638   T   T   T
  0.9784205708820837  0.2704525913898633  0.9966601594698251   T   T   T
  0.0205022807060978  0.3538767658164201  0.9981168354707566   T   T   T
  0.1038170518928347  0.3949146847226157  0.9981548044719586   T   T   T
  0.1462972298063114  0.3538832169073498  0.9962782621238186   T   T   T
  0.2287302642885479  0.3943960932862082  0.9966971021843980   T   T   T
  0.3502049190327042  0.3908386876907959  0.0002375615021321   T   T   T
  0.3910398451877835  0.3497378971141002  0.0019262553676808   T   T   T
  0.5159497542579574  0.3547216060640598  0.0054078991197694   T   T   T
  0.6427404221149912  0.3564362684547885  0.0021229543029155   T   T   T
  0.7258130805464059  0.3977880284337005  0.0013793985973570   T   T   T
  0.7685759675456899  0.3554411504130851  0.0009391415517803   T   T   T
  0.8522517214588698  0.3960095967241448  0.0004282373955030   T   T   T
  0.8945653678475796  0.3542120179211328  0.9996833120499836   T   T   T
  0.9783670051947240  0.3954688391352637  0.9993958050405054   T   T   T
  0.0208875487166398  0.4786978020420202  1.0000087302089398   T   T   T
  0.1046816563154323  0.5198636341200245  0.0001662858332734   T   T   T
  0.1468579792782498  0.4780338601633180  0.9996237895617103   T   T   T
  0.2296933259889539  0.5184579702916375  0.0003231656046185   T   T   T
  0.3551175333638401  0.5157270173035251  0.0028294254026763   T   T   T
  0.6443600243393052  0.4831983540686164  0.0026361905579364   T   T   T
  0.7698466613277233  0.4805354108203468  0.0003301436199994   T   T   T
  0.8526819577815024  0.5209701812819888  0.9997989992385092   T   T   T
  0.8948427126628681  0.4791429061446633  0.0002295852878971   T   T   T
  0.9786405455748804  0.5203136526688622  0.0000946533125081   T   T   T
  0.0211365394950261  0.6035439539357029  0.9996350310204850   T   T   T
  0.1049367458630308  0.6448017820387063  0.9998648201584049   T   T   T
  0.1472522920976052  0.6029985268466646  0.0004915368915813   T   T   T
  0.2309234789476963  0.6435664004424391  0.0010385022226228   T   T   T
  0.2737048301461211  0.6012324794377217  0.0015401462777003   T   T   T
  0.3567481080329944  0.6425731249076452  0.0025241961388109   T   T   T
  0.4835881918557692  0.6443279339532385  0.0050742874938425   T   T   T
  0.6083938403267204  0.6492810885810866  0.0013475404961596   T   T   T
  0.6490906463207566  0.6080369104922169  0.9992631857845435   T   T   T
  0.7707262165886073  0.6045889771653312  0.9967909968807267   T   T   T
  0.8531651437788521  0.6451120430372455  0.9966922300463028   T   T   T
  0.8956743878300120  0.6040922577370084  0.9985506508100992   T   T   T
  0.9789907546556262  0.6451346151716157  0.9985384061705518   T   T   T
  0.0210627560217651  0.7285664953816522  0.9971195961470710   T   T   T
  0.1043592936803349  0.7697641895134272  0.9975992184414418   T   T   T
  0.1465463603199200  0.7279318080207110  0.9991810195162828   T   T   T
  0.2300845086511451  0.7691108147731152  0.9997010105436789   T   T   T
  0.2722189838806643  0.7270082539852948  0.0007903128115365   T   T   T
  0.3556983652199991  0.7683427925403626  0.0008867957550220   T   T   T
  0.3980396359292868  0.7255949470474381  0.0014314804063516   T   T   T
  0.4808321665601274  0.7696334593463049  1.0000565064746010   T   T   T
  0.6049121874148105  0.7705888897442791  0.9970464326138917   T   T   T
  0.7301568188693968  0.7710687417597324  0.9929109427029092   T   T   T
  0.7711820681463688  0.7298898996860458  0.9927047747359269   T   T   T
  0.8543715295741928  0.7710225355038544  0.9929279593460338   T   T   T
  0.8955879247818089  0.7290293655356240  0.9945973844282736   T   T   T
  0.9788481758101505  0.7700626342083695  0.9951292788609101   T   T   T
  0.0208296820906362  0.8535384573488617  0.9937989197052340   T   T   T
  0.1042676259235863  0.8949115413583558  0.9944662991032054   T   T   T
  0.1459980097367687  0.8532048409351987  0.9964051795737795   T   T   T
  0.2294147707710473  0.8947790637806620  0.9972973550391121   T   T   T
  0.2712844448007620  0.8526605344141115  0.9989077606285126   T   T   T
  0.3544150154478579  0.8942829029779420  0.9994116957754002   T   T   T
  0.3962569452270811  0.8520031452080754  0.0001265808214424   T   T   T
  0.4793916295602056  0.8945997804259145  0.9997476915016994   T   T   T
  0.5212307591082060  0.8524366003647326  0.9993183276484816   T   T   T
  0.6043947796854928  0.8955030355929259  0.9980550966317703   T   T   T
  0.6454694562488771  0.8531642214593267  0.9965005696301287   T   T   T
  0.7293053522253716  0.8954591919995545  0.9945489719343892   T   T   T
  0.7712988133067615  0.8542406115883013  0.9929818253608838   T   T   T
  0.8542635711723942  0.8957226447304547  0.9922160001461381   T   T   T
  0.8959019061321051  0.8540139772521405  0.9922560364590072   T   T   T
  0.9793273911557939  0.8953601752004497  0.9924288855586408   T   T   T
  0.3521865154966670  0.2674964846365365  0.9939188261736435   T   T   T
  0.4768182840288434  0.2714163466198812  0.9993342218622544   T   T   T
  0.2679492336039648  0.3520076119148869  0.9930283657712893   T   T   T
  0.4704453419146555  0.3877384266993740  0.0127404686314590   T   T   T
  0.5996050244634660  0.3993534011014936  0.0031302534463237   T   T   T
  0.2717495020041685  0.4766708268396342  0.9996349029235319   T   T   T
  0.3886832496834070  0.4707417668938889  0.0073835992360039   T   T   T
  0.6105866285342507  0.5281405507541111  0.0054244406039906   T   T   T
  0.7277905510036138  0.5222917129410617  0.9996882883867542   T   T   T
  0.3998587893092425  0.5996543127662348  0.0040037635145275   T   T   T
  0.5290163398528921  0.6113015031459235  0.0124345429515823   T   T   T
  0.7315467555139155  0.6470358713787439  0.9930222937276433   T   T   T
  0.5226756607054878  0.7275940851697636  0.9994635543631980   T   T   T
  0.6473068877201295  0.7315581619645921  0.9940521751713012   T   T   T
  0.4995443838115041  0.4996618973470560  0.0293561775541273   T   T   T
 
  0.00000000E+00  0.00000000E+00  0.00000000E+00
  0.00000000E+00  0.00000000E+00  0.00000000E+00
  0.00000000E+00  0.00000000E+00  0.00000000E+00
  0.00000000E+00  0.00000000E+00  0.00000000E+00
  0.00000000E+00  0.00000000E+00  0.00000000E+00
  0.00000000E+00  0.00000000E+00  0.00000000E+00
  0.00000000E+00  0.00000000E+00  0.00000000E+00
  0.00000000E+00  0.00000000E+00  0.00000000E+00
  0.00000000E+00  0.00000000E+00  0.00000000E+00
  0.00000000E+00  0.00000000E+00  0.00000000E+00
  0.00000000E+00  0.00000000E+00  0.00000000E+00
  0.00000000E+00  0.00000000E+00  0.00000000E+00
  0.00000000E+00  0.00000000E+00  0.00000000E+00
  0.00000000E+00  0.00000000E+00  0.00000000E+00
  0.00000000E+00  0.00000000E+00  0.00000000E+00
  0.00000000E+00  0.00000000E+00  0.00000000E+00
  0.00000000E+00  0.00000000E+00  0.00000000E+00
  0.00000000E+00  0.00000000E+00  0.00000000E+00
  0.00000000E+00  0.00000000E+00  0.00000000E+00
  0.00000000E+00  0.00000000E+00  0.00000000E+00
  0.00000000E+00  0.00000000E+00  0.00000000E+00
  0.00000000E+00  0.00000000E+00  0.00000000E+00
  0.00000000E+00  0.00000000E+00  0.00000000E+00
  0.00000000E+00  0.00000000E+00  0.00000000E+00
  0.00000000E+00  0.00000000E+00  0.00000000E+00
  0.00000000E+00  0.00000000E+00  0.00000000E+00
  0.00000000E+00  0.00000000E+00  0.00000000E+00
  0.00000000E+00  0.00000000E+00  0.00000000E+00
  0.00000000E+00  0.00000000E+00  0.00000000E+00
  0.00000000E+00  0.00000000E+00  0.00000000E+00
  0.00000000E+00  0.00000000E+00  0.00000000E+00
  0.00000000E+00  0.00000000E+00  0.00000000E+00
  0.00000000E+00  0.00000000E+00  0.00000000E+00
  0.00000000E+00  0.00000000E+00  0.00000000E+00
  0.00000000E+00  0.00000000E+00  0.00000000E+00
  0.00000000E+00  0.00000000E+00  0.00000000E+00
  0.00000000E+00  0.00000000E+00  0.00000000E+00
  0.00000000E+00  0.00000000E+00  0.00000000E+00
  0.00000000E+00  0.00000000E+00  0.00000000E+00
  0.00000000E+00  0.00000000E+00  0.00000000E+00
  0.00000000E+00  0.00000000E+00  0.00000000E+00
  0.00000000E+00  0.00000000E+00  0.00000000E+00
  0.00000000E+00  0.00000000E+00  0.00000000E+00
  0.00000000E+00  0.00000000E+00  0.00000000E+00
  0.00000000E+00  0.00000000E+00  0.00000000E+00
  0.00000000E+00  0.00000000E+00  0.00000000E+00
  0.00000000E+00  0.00000000E+00  0.00000000E+00
  0.00000000E+00  0.00000000E+00  0.00000000E+00
  0.00000000E+00  0.00000000E+00  0.00000000E+00
  0.00000000E+00  0.00000000E+00  0.00000000E+00
  0.00000000E+00  0.00000000E+00  0.00000000E+00
  0.00000000E+00  0.00000000E+00  0.00000000E+00
  0.00000000E+00  0.00000000E+00  0.00000000E+00
  0.00000000E+00  0.00000000E+00  0.00000000E+00
  0.00000000E+00  0.00000000E+00  0.00000000E+00
  0.00000000E+00  0.00000000E+00  0.00000000E+00
  0.00000000E+00  0.00000000E+00  0.00000000E+00
  0.00000000E+00  0.00000000E+00  0.00000000E+00
  0.00000000E+00  0.00000000E+00  0.00000000E+00
  0.00000000E+00  0.00000000E+00  0.00000000E+00
  0.00000000E+00  0.00000000E+00  0.00000000E+00
  0.00000000E+00  0.00000000E+00  0.00000000E+00
  0.00000000E+00  0.00000000E+00  0.00000000E+00
  0.00000000E+00  0.00000000E+00  0.00000000E+00
  0.00000000E+00  0.00000000E+00  0.00000000E+00
  0.00000000E+00  0.00000000E+00  0.00000000E+00
  0.00000000E+00  0.00000000E+00  0.00000000E+00
  0.00000000E+00  0.00000000E+00  0.00000000E+00
  0.00000000E+00  0.00000000E+00  0.00000000E+00
  0.00000000E+00  0.00000000E+00  0.00000000E+00
  0.00000000E+00  0.00000000E+00  0.00000000E+00
  0.00000000E+00  0.00000000E+00  0.00000000E+00
  0.00000000E+00  0.00000000E+00  0.00000000E+00
  0.00000000E+00  0.00000000E+00  0.00000000E+00
  0.00000000E+00  0.00000000E+00  0.00000000E+00
  0.00000000E+00  0.00000000E+00  0.00000000E+00
  0.00000000E+00  0.00000000E+00  0.00000000E+00
  0.00000000E+00  0.00000000E+00  0.00000000E+00
  0.00000000E+00  0.00000000E+00  0.00000000E+00
  0.00000000E+00  0.00000000E+00  0.00000000E+00
  0.00000000E+00  0.00000000E+00  0.00000000E+00
  0.00000000E+00  0.00000000E+00  0.00000000E+00
  0.00000000E+00  0.00000000E+00  0.00000000E+00
  0.00000000E+00  0.00000000E+00  0.00000000E+00
  0.00000000E+00  0.00000000E+00  0.00000000E+00
  0.00000000E+00  0.00000000E+00  0.00000000E+00
  0.00000000E+00  0.00000000E+00  0.00000000E+00
  0.00000000E+00  0.00000000E+00  0.00000000E+00
  0.00000000E+00  0.00000000E+00  0.00000000E+00
  0.00000000E+00  0.00000000E+00  0.00000000E+00
  0.00000000E+00  0.00000000E+00  0.00000000E+00
  0.00000000E+00  0.00000000E+00  0.00000000E+00
  0.00000000E+00  0.00000000E+00  0.00000000E+00
  0.00000000E+00  0.00000000E+00  0.00000000E+00
  0.00000000E+00  0.00000000E+00  0.00000000E+00
  0.00000000E+00  0.00000000E+00  0.00000000E+00
  0.00000000E+00  0.00000000E+00  0.00000000E+00
  0.00000000E+00  0.00000000E+00  0.00000000E+00
  0.00000000E+00  0.00000000E+00  0.00000000E+00
  0.00000000E+00  0.00000000E+00  0.00000000E+00
  0.00000000E+00  0.00000000E+00  0.00000000E+00
  0.00000000E+00  0.00000000E+00  0.00000000E+00
  0.00000000E+00  0.00000000E+00  0.00000000E+00
  0.00000000E+00  0.00000000E+00  0.00000000E+00
  0.00000000E+00  0.00000000E+00  0.00000000E+00
  0.00000000E+00  0.00000000E+00  0.00000000E+00
  0.00000000E+00  0.00000000E+00  0.00000000E+00
  0.00000000E+00  0.00000000E+00  0.00000000E+00
  0.00000000E+00  0.00000000E+00  0.00000000E+00
  0.00000000E+00  0.00000000E+00  0.00000000E+00
  0.00000000E+00  0.00000000E+00  0.00000000E+00
  0.00000000E+00  0.00000000E+00  0.00000000E+00
  0.00000000E+00  0.00000000E+00  0.00000000E+00
  0.00000000E+00  0.00000000E+00  0.00000000E+00
  0.00000000E+00  0.00000000E+00  0.00000000E+00
  0.00000000E+00  0.00000000E+00  0.00000000E+00
  0.00000000E+00  0.00000000E+00  0.00000000E+00
  0.00000000E+00  0.00000000E+00  0.00000000E+00
  0.00000000E+00  0.00000000E+00  0.00000000E+00
  0.00000000E+00  0.00000000E+00  0.00000000E+00
  0.00000000E+00  0.00000000E+00  0.00000000E+00
  0.00000000E+00  0.00000000E+00  0.00000000E+00
  0.00000000E+00  0.00000000E+00  0.00000000E+00
  0.00000000E+00  0.00000000E+00  0.00000000E+00
  0.00000000E+00  0.00000000E+00  0.00000000E+00
  0.00000000E+00  0.00000000E+00  0.00000000E+00
  0.00000000E+00  0.00000000E+00  0.00000000E+00
  0.00000000E+00  0.00000000E+00  0.00000000E+00
  0.00000000E+00  0.00000000E+00  0.00000000E+00
  0.00000000E+00  0.00000000E+00  0.00000000E+00
  0.00000000E+00  0.00000000E+00  0.00000000E+00
  0.00000000E+00  0.00000000E+00  0.00000000E+00
  0.00000000E+00  0.00000000E+00  0.00000000E+00
  0.00000000E+00  0.00000000E+00  0.00000000E+00
  0.00000000E+00  0.00000000E+00  0.00000000E+00
  0.00000000E+00  0.00000000E+00  0.00000000E+00
  0.00000000E+00  0.00000000E+00  0.00000000E+00
  0.00000000E+00  0.00000000E+00  0.00000000E+00
