H    C    N    Ru                       
   1.00000000000000     
    17.0990250000000010   -9.8721270000000008    0.0000000000000000
     0.0000000000000000   19.7442530000000005    0.0000000000000000
     0.0000000000000000    0.0000000000000000   20.0000000000000000
   H    C    N    Ru
     8   116    13     1
Selective dynamics
Direct
  0.3424702495574324  0.4086025801845470  0.1629366373234913   T   T   T
  0.4205468669804456  0.4865434232709962  0.2078655758982980   T   T   T
  0.3887104862522894  0.3872735101059408  0.2291773902596607   T   T   T
  0.4734003542298178  0.5434883099523382  0.1033839000354327   T   T   T
  0.4359522297032977  0.3661895376771077  0.1203736668699294   T   T   T
  0.5547358122923726  0.4906993825604254  0.2074203296538303   T   T   T
  0.5763283471618188  0.5248746115467418  0.1256014694938693   T   T   T
  0.5717222804899124  0.4337295211096640  0.1461490545330911   T   T   T
  0.3994227486846136  0.4277604021219132  0.1870813163652997   T   T   T
  0.4567938610058845  0.4262529928569929  0.1378165272729799   T   T   T
  0.5426666520422653  0.4678515200271615  0.1558537353158116   T   T   T
  0.0212798478265285  0.9792085207486977  0.9899242532969196   T   T   T
  0.1046194014076748  0.0207291994372070  0.9903455255594378   T   T   T
  0.1462741296958447  0.9791495459676764  0.9918759599293498   T   T   T
  0.2298273005291071  0.0212284930776300  0.9925402455529176   T   T   T
  0.2712067587711743  0.9789466871262762  0.9944751909205929   T   T   T
  0.3546010296013484  0.0209510495343525  0.9951445571769217   T   T   T
  0.3961589433781563  0.9786979796857380  0.9959418183232095   T   T   T
  0.4793854256377712  0.0209715775243488  0.9957484901142877   T   T   T
  0.5209244790898220  0.9785230452806485  0.9952609914787774   T   T   T
  0.6042448781005908  0.0210587189574377  0.9944448113554651   T   T   T
  0.6458505119750096  0.9787751231654163  0.9929564608565828   T   T   T
  0.7292558164890677  0.0208979330031868  0.9921331542735708   T   T   T
  0.7707572887066914  0.9789884741825311  0.9904780678405969   T   T   T
  0.8542661495291107  0.0209873387293142  0.9900830213839390   T   T   T
  0.8962759291311022  0.9796025130841862  0.9891999338039531   T   T   T
  0.9795007084551866  0.0210540556011192  0.9894341579021468   T   T   T
  0.0210058979759416  0.1043846173933826  0.9898086861227101   T   T   T
  0.1045494455157919  0.1459148665777276  0.9894425441352960   T   T   T
  0.1462123368380087  0.1043251947378045  0.9895310734386030   T   T   T
  0.2293310658202945  0.1461053272996065  0.9895284750137098   T   T   T
  0.2710182070934439  0.1046029926475620  0.9912688804157236   T   T   T
  0.3549071831413707  0.1471158566351644  0.9928362241308533   T   T   T
  0.3957148515794612  0.1043925704521481  0.9947588333207712   T   T   T
  0.4788637639501047  0.1471725588086614  0.9956647251206844   T   T   T
  0.5206244938604021  0.1048380871586801  0.9959072361759475   T   T   T
  0.6037390507002482  0.1472932222781813  0.9962553114471315   T   T   T
  0.6454939142382080  0.1048337442736252  0.9952771810355435   T   T   T
  0.7287360651110982  0.1465871953037626  0.9950898273500808   T   T   T
  0.7706430397209126  0.1046046841287055  0.9934170286722732   T   T   T
  0.8539618899089271  0.1461503555153044  0.9931309684953640   T   T   T
  0.8958000680665920  0.1044523944304487  0.9913227030051578   T   T   T
  0.9793407487278039  0.1460095625108474  0.9909547675541126   T   T   T
  0.0214003554368028  0.2295516296847095  0.9923701946983845   T   T   T
  0.1047020718823930  0.2706831822821334  0.9916496877786486   T   T   T
  0.1462698766912409  0.2290264599252439  0.9896491494214124   T   T   T
  0.2296047632807562  0.2703665969951184  0.9885610240697226   T   T   T
  0.2707032772370089  0.2294668983476504  0.9884393147109984   T   T   T
  0.3957862013106327  0.2298383415799685  0.9923992063271992   T   T   T
  0.5192722447615584  0.2300274334372074  0.9962481995582498   T   T   T
  0.6020029105213655  0.2738111204787464  0.9975466196426427   T   T   T
  0.6442944467604552  0.2309538950402044  0.9973057577150579   T   T   T
  0.7277655561764029  0.2723321842983919  0.9977096539070974   T   T   T
  0.7699474573159377  0.2301886769716856  0.9965510113044411   T   T   T
  0.8534375530241944  0.2713935157843067  0.9966829742968042   T   T   T
  0.8957289105468222  0.2296934554447003  0.9948775991720720   T   T   T
  0.9790359443723450  0.2709112542169265  0.9946761222811197   T   T   T
  0.0212213687596321  0.3543710595703538  0.9966570919535208   T   T   T
  0.1044377352356635  0.3954402792448460  0.9966397047769190   T   T   T
  0.1473480343340270  0.3546123324459004  0.9941443626359041   T   T   T
  0.2296025552434452  0.3950988842241354  0.9941366353361795   T   T   T
  0.3521285855011450  0.3926992385097180  0.9961317927508003   T   T   T
  0.3937003150629917  0.3526648285645722  0.9941667647407788   T   T   T
  0.5170310640231199  0.3560632684508210  0.9998176657845261   T   T   T
  0.6432245499180368  0.3568256085804075  0.9983934181380291   T   T   T
  0.7262428154883157  0.3980907452472880  0.9995256911483988   T   T   T
  0.7689836246506434  0.3557246094299351  0.9990195216538625   T   T   T
  0.8527293459999717  0.3963846306737969  0.9993625104910784   T   T   T
  0.8950879775246302  0.3546629049579942  0.9982729827825118   T   T   T
  0.9788740489169679  0.3959304380820828  0.9983139585650983   T   T   T
  0.0212978556633652  0.4791498068499184  0.9993156867357469   T   T   T
  0.1051748253348898  0.5204016432070514  0.9993317279235893   T   T   T
  0.1474769911080711  0.4785616451437189  0.9983747654900074   T   T   T
  0.2303217810289120  0.5190601710676912  0.9989011827757409   T   T   T
  0.3560595492239645  0.5164870034443541  0.0024957640604358   T   T   T
  0.6437983034146872  0.4830613267418044  0.9959766901139327   T   T   T
  0.7698653367670426  0.4808297158075084  0.0004060706164513   T   T   T
  0.8528642755537981  0.5213914317634357  0.0000459438661945   T   T   T
  0.8951070109917977  0.4795329192861170 -0.0000169224110494   T   T   T
  0.9789650079557781  0.5207806469062505  0.9997957361454496   T   T   T
  0.0214010945508282  0.6040143155103732  0.9994105379150965   T   T   T
  0.1051866354439894  0.6453203874023661  0.9992746765808688   T   T   T
  0.1474947544914674  0.6035055006131598  0.9996820853994539   T   T   T
  0.2311450800466947  0.6441569265861212  0.9999986607799529   T   T   T
  0.2738105825593701  0.6017673469525301  0.0006158538032111   T   T   T
  0.3568059228664776  0.6427627357491588  0.0019092576332381   T   T   T
  0.4838105342624519  0.6430373210815382  0.0034961334433337   T   T   T
  0.6487481530978204  0.6064235494812972  0.9948673899140010   T   T   T
  0.7706536623307311  0.6044178417072482  0.9956485512033997   T   T   T
  0.8530548470217522  0.6454006276963080  0.9959076483091927   T   T   T
  0.8958598800071954  0.6044513805678982  0.9986577316035569   T   T   T
  0.9792120634996414  0.6456154791314578  0.9983773035172095   T   T   T
  0.0214985135300820  0.7290663804767579  0.9964885040854078   T   T   T
  0.1047812118949586  0.7703760675826935  0.9967865746228773   T   T   T
  0.1468920014062999  0.7285177334930945  0.9983381957834218   T   T   T
  0.2303967033590976  0.7697528778370819  0.9983456823985725   T   T   T
  0.2724527312660047  0.7275761983736768  0.9993503631543922   T   T   T
  0.3558544703925040  0.7687267242188853  0.9986981605977565   T   T   T
  0.3979080835598219  0.7258630205603557  0.9994989095618100   T   T   T
  0.4808123352880776  0.7691748293278177  0.9965260371164333   T   T   T
  0.6042708251826578  0.7686338564771622  0.9921223511918137   T   T   T
  0.7302672098376162  0.7707978819207946  0.9886397306939230   T   T   T
  0.7723338676566340  0.7303501226330207  0.9889525775866913   T   T   T
  0.8545703609519656  0.7708963345543831  0.9901806967375516   T   T   T
  0.8962127319012286  0.7292274864580756  0.9929808078641584   T   T   T
  0.9792348901195941  0.7704206600069737  0.9939254819881976   T   T   T
  0.0213604024052495  0.8541023367940777  0.9923707600944243   T   T   T
  0.1046999961621881  0.8955780583567622  0.9931810569721627   T   T   T
  0.1464942733245932  0.8538612047760321  0.9952470240902050   T   T   T
  0.2298580228502158  0.8954998847500829  0.9956769718846404   T   T   T
  0.2716730697993033  0.8533286958690123  0.9970887176142988   T   T   T
  0.3548461265430418  0.8948694754522835  0.9967492955976444   T   T   T
  0.3965496346688751  0.8524498703732344  0.9970791731595576   T   T   T
  0.4796826451921931  0.8946287295121795  0.9956690124801441   T   T   T
  0.5212750901347166  0.8521038818679980  0.9947464267647118   T   T   T
  0.6048351239854155  0.8952208620514801  0.9926900517961900   T   T   T
  0.6457158664343107  0.8529641506322904  0.9910822743658486   T   T   T
  0.7292102646649289  0.8951207437133748  0.9897401783616178   T   T   T
  0.7717016299580013  0.8542989469498297  0.9886582668306656   T   T   T
  0.8548095612137535  0.8961289086928114  0.9887623999670041   T   T   T
  0.8963124062958456  0.8544356632108668  0.9895877889407074   T   T   T
  0.9797514880172010  0.8958661195021883  0.9905201415418715   T   T   T
  0.6472606025858518  0.7300087125731493  0.9907162081453725   T   T   T
  0.5279857630727450  0.6067449732618625  0.0132785149143496   T   T   T
  0.3541033635342861  0.2698317662504406  0.9881374234780951   T   T   T
  0.4777877155401752  0.2723064175770560  0.9958748614571754   T   T   T
  0.2697183651265500  0.3534855713831964  0.9885794934350342   T   T   T
  0.4736550627633234  0.3915572769094494  0.0022974807754924   T   T   T
  0.6002787171769962  0.3998563265560737  0.9971400496655342   T   T   T
  0.2728336508888082  0.4774163210789281  0.9974346201291728   T   T   T
  0.3903170474438482  0.4720933292984300  0.0081372954128510   T   T   T
  0.6084081228161371  0.5276590748337507  0.9978470557995017   T   T   T
  0.7274799478064130  0.5223266648783736  0.9997905517678297   T   T   T
  0.3989812286147352  0.5996219939899453  0.0039880207742257   T   T   T
  0.6090527041603128  0.6474142574265365  0.9985866099708397   T   T   T
  0.7301788297569097  0.6465937818905793  0.9896674136008778   T   T   T
  0.5213664428945370  0.7270277727003783  0.9953053336678896   T   T   T
  0.4963439156670250  0.4987025907868641  0.0489087271307814   T   T   T
 
  0.00000000E+00  0.00000000E+00  0.00000000E+00
  0.00000000E+00  0.00000000E+00  0.00000000E+00
  0.00000000E+00  0.00000000E+00  0.00000000E+00
  0.00000000E+00  0.00000000E+00  0.00000000E+00
  0.00000000E+00  0.00000000E+00  0.00000000E+00
  0.00000000E+00  0.00000000E+00  0.00000000E+00
  0.00000000E+00  0.00000000E+00  0.00000000E+00
  0.00000000E+00  0.00000000E+00  0.00000000E+00
  0.00000000E+00  0.00000000E+00  0.00000000E+00
  0.00000000E+00  0.00000000E+00  0.00000000E+00
  0.00000000E+00  0.00000000E+00  0.00000000E+00
  0.00000000E+00  0.00000000E+00  0.00000000E+00
  0.00000000E+00  0.00000000E+00  0.00000000E+00
  0.00000000E+00  0.00000000E+00  0.00000000E+00
  0.00000000E+00  0.00000000E+00  0.00000000E+00
  0.00000000E+00  0.00000000E+00  0.00000000E+00
  0.00000000E+00  0.00000000E+00  0.00000000E+00
  0.00000000E+00  0.00000000E+00  0.00000000E+00
  0.00000000E+00  0.00000000E+00  0.00000000E+00
  0.00000000E+00  0.00000000E+00  0.00000000E+00
  0.00000000E+00  0.00000000E+00  0.00000000E+00
  0.00000000E+00  0.00000000E+00  0.00000000E+00
  0.00000000E+00  0.00000000E+00  0.00000000E+00
  0.00000000E+00  0.00000000E+00  0.00000000E+00
  0.00000000E+00  0.00000000E+00  0.00000000E+00
  0.00000000E+00  0.00000000E+00  0.00000000E+00
  0.00000000E+00  0.00000000E+00  0.00000000E+00
  0.00000000E+00  0.00000000E+00  0.00000000E+00
  0.00000000E+00  0.00000000E+00  0.00000000E+00
  0.00000000E+00  0.00000000E+00  0.00000000E+00
  0.00000000E+00  0.00000000E+00  0.00000000E+00
  0.00000000E+00  0.00000000E+00  0.00000000E+00
  0.00000000E+00  0.00000000E+00  0.00000000E+00
  0.00000000E+00  0.00000000E+00  0.00000000E+00
  0.00000000E+00  0.00000000E+00  0.00000000E+00
  0.00000000E+00  0.00000000E+00  0.00000000E+00
  0.00000000E+00  0.00000000E+00  0.00000000E+00
  0.00000000E+00  0.00000000E+00  0.00000000E+00
  0.00000000E+00  0.00000000E+00  0.00000000E+00
  0.00000000E+00  0.00000000E+00  0.00000000E+00
  0.00000000E+00  0.00000000E+00  0.00000000E+00
  0.00000000E+00  0.00000000E+00  0.00000000E+00
  0.00000000E+00  0.00000000E+00  0.00000000E+00
  0.00000000E+00  0.00000000E+00  0.00000000E+00
  0.00000000E+00  0.00000000E+00  0.00000000E+00
  0.00000000E+00  0.00000000E+00  0.00000000E+00
  0.00000000E+00  0.00000000E+00  0.00000000E+00
  0.00000000E+00  0.00000000E+00  0.00000000E+00
  0.00000000E+00  0.00000000E+00  0.00000000E+00
  0.00000000E+00  0.00000000E+00  0.00000000E+00
  0.00000000E+00  0.00000000E+00  0.00000000E+00
  0.00000000E+00  0.00000000E+00  0.00000000E+00
  0.00000000E+00  0.00000000E+00  0.00000000E+00
  0.00000000E+00  0.00000000E+00  0.00000000E+00
  0.00000000E+00  0.00000000E+00  0.00000000E+00
  0.00000000E+00  0.00000000E+00  0.00000000E+00
  0.00000000E+00  0.00000000E+00  0.00000000E+00
  0.00000000E+00  0.00000000E+00  0.00000000E+00
  0.00000000E+00  0.00000000E+00  0.00000000E+00
  0.00000000E+00  0.00000000E+00  0.00000000E+00
  0.00000000E+00  0.00000000E+00  0.00000000E+00
  0.00000000E+00  0.00000000E+00  0.00000000E+00
  0.00000000E+00  0.00000000E+00  0.00000000E+00
  0.00000000E+00  0.00000000E+00  0.00000000E+00
  0.00000000E+00  0.00000000E+00  0.00000000E+00
  0.00000000E+00  0.00000000E+00  0.00000000E+00
  0.00000000E+00  0.00000000E+00  0.00000000E+00
  0.00000000E+00  0.00000000E+00  0.00000000E+00
  0.00000000E+00  0.00000000E+00  0.00000000E+00
  0.00000000E+00  0.00000000E+00  0.00000000E+00
  0.00000000E+00  0.00000000E+00  0.00000000E+00
  0.00000000E+00  0.00000000E+00  0.00000000E+00
  0.00000000E+00  0.00000000E+00  0.00000000E+00
  0.00000000E+00  0.00000000E+00  0.00000000E+00
  0.00000000E+00  0.00000000E+00  0.00000000E+00
  0.00000000E+00  0.00000000E+00  0.00000000E+00
  0.00000000E+00  0.00000000E+00  0.00000000E+00
  0.00000000E+00  0.00000000E+00  0.00000000E+00
  0.00000000E+00  0.00000000E+00  0.00000000E+00
  0.00000000E+00  0.00000000E+00  0.00000000E+00
  0.00000000E+00  0.00000000E+00  0.00000000E+00
  0.00000000E+00  0.00000000E+00  0.00000000E+00
  0.00000000E+00  0.00000000E+00  0.00000000E+00
  0.00000000E+00  0.00000000E+00  0.00000000E+00
  0.00000000E+00  0.00000000E+00  0.00000000E+00
  0.00000000E+00  0.00000000E+00  0.00000000E+00
  0.00000000E+00  0.00000000E+00  0.00000000E+00
  0.00000000E+00  0.00000000E+00  0.00000000E+00
  0.00000000E+00  0.00000000E+00  0.00000000E+00
  0.00000000E+00  0.00000000E+00  0.00000000E+00
  0.00000000E+00  0.00000000E+00  0.00000000E+00
  0.00000000E+00  0.00000000E+00  0.00000000E+00
  0.00000000E+00  0.00000000E+00  0.00000000E+00
  0.00000000E+00  0.00000000E+00  0.00000000E+00
  0.00000000E+00  0.00000000E+00  0.00000000E+00
  0.00000000E+00  0.00000000E+00  0.00000000E+00
  0.00000000E+00  0.00000000E+00  0.00000000E+00
  0.00000000E+00  0.00000000E+00  0.00000000E+00
  0.00000000E+00  0.00000000E+00  0.00000000E+00
  0.00000000E+00  0.00000000E+00  0.00000000E+00
  0.00000000E+00  0.00000000E+00  0.00000000E+00
  0.00000000E+00  0.00000000E+00  0.00000000E+00
  0.00000000E+00  0.00000000E+00  0.00000000E+00
  0.00000000E+00  0.00000000E+00  0.00000000E+00
  0.00000000E+00  0.00000000E+00  0.00000000E+00
  0.00000000E+00  0.00000000E+00  0.00000000E+00
  0.00000000E+00  0.00000000E+00  0.00000000E+00
  0.00000000E+00  0.00000000E+00  0.00000000E+00
  0.00000000E+00  0.00000000E+00  0.00000000E+00
  0.00000000E+00  0.00000000E+00  0.00000000E+00
  0.00000000E+00  0.00000000E+00  0.00000000E+00
  0.00000000E+00  0.00000000E+00  0.00000000E+00
  0.00000000E+00  0.00000000E+00  0.00000000E+00
  0.00000000E+00  0.00000000E+00  0.00000000E+00
  0.00000000E+00  0.00000000E+00  0.00000000E+00
  0.00000000E+00  0.00000000E+00  0.00000000E+00
  0.00000000E+00  0.00000000E+00  0.00000000E+00
  0.00000000E+00  0.00000000E+00  0.00000000E+00
  0.00000000E+00  0.00000000E+00  0.00000000E+00
  0.00000000E+00  0.00000000E+00  0.00000000E+00
  0.00000000E+00  0.00000000E+00  0.00000000E+00
  0.00000000E+00  0.00000000E+00  0.00000000E+00
  0.00000000E+00  0.00000000E+00  0.00000000E+00
  0.00000000E+00  0.00000000E+00  0.00000000E+00
  0.00000000E+00  0.00000000E+00  0.00000000E+00
  0.00000000E+00  0.00000000E+00  0.00000000E+00
  0.00000000E+00  0.00000000E+00  0.00000000E+00
  0.00000000E+00  0.00000000E+00  0.00000000E+00
  0.00000000E+00  0.00000000E+00  0.00000000E+00
  0.00000000E+00  0.00000000E+00  0.00000000E+00
  0.00000000E+00  0.00000000E+00  0.00000000E+00
  0.00000000E+00  0.00000000E+00  0.00000000E+00
  0.00000000E+00  0.00000000E+00  0.00000000E+00
  0.00000000E+00  0.00000000E+00  0.00000000E+00
  0.00000000E+00  0.00000000E+00  0.00000000E+00
  0.00000000E+00  0.00000000E+00  0.00000000E+00
  0.00000000E+00  0.00000000E+00  0.00000000E+00
  0.00000000E+00  0.00000000E+00  0.00000000E+00
