RuN14                                   
   1.00000000000000     
    17.0990259999999985   -9.8721239999999995    0.0000000000000000
     0.0000000000000000   19.7442530000000005    0.0000000000000000
     0.0000000000000000    0.0000000000000000   20.0000000000000000
   C    N    Ru
   112    14     1
Selective dynamics
Direct
  0.0209489658215389  0.9790838042220926  0.0000000000000000   T   T   T
  0.1040800688875549  0.0202741340004096  0.0000000000000000   T   T   T
  0.1459365772627024  0.9787165330778009  0.0000000000000000   T   T   T
  0.2293738146396294  0.0205349166968531  0.0000000000000000   T   T   T
  0.2709957257609261  0.9784545266683224  0.0000000000000000   T   T   T
  0.3542525086951400  0.0204202817933350  0.0000000000000000   T   T   T
  0.3959249440736841  0.9784138941654277  0.0000000000000000   T   T   T
  0.4792004095990450  0.0210894648249536  0.0000000000000000   T   T   T
  0.5208117065261462  0.9789682367690773  0.0000000000000000   T   T   T
  0.6040864299781532  0.0216458303834415  0.0000000000000000   T   T   T
  0.6457599194534538  0.9796411565268670  0.0000000000000000   T   T   T
  0.7290163249727613  0.0216075275156058  0.0000000000000000   T   T   T
  0.7706360614806869  0.9795217101223344  0.0000000000000000   T   T   T
  0.8540736735123744  0.0213375932127633  0.0000000000000000   T   T   T
  0.8959317051893194  0.9797800989486092  0.0000000000000000   T   T   T
  0.9790633194855758  0.0209704298120457  0.0000000000000000   T   T   T
  0.0202539135935424  0.1041014778183751  0.0000000000000000   T   T   T
  0.1036163138566408  0.1453283437477140  0.0000000000000000   T   T   T
  0.1453073138626451  0.1036368339583120  0.0000000000000000   T   T   T
  0.2282157516367320  0.1450278605905453  0.0000000000000000   T   T   T
  0.2704050280922914  0.1037833592230299  0.0000000000000000   T   T   T
  0.3540230483373819  0.1459289097574938  0.0000000000000000   T   T   T
  0.3951829563407259  0.1038879200966321  0.0000000000000000   T   T   T
  0.4784299404546601  0.1471380009968613  0.0000000000000000   T   T   T
  0.5202383366552112  0.1049832637280872  0.0000000000000000   T   T   T
  0.6033117710082863  0.1476197008293383  0.0000000000000000   T   T   T
  0.6451417394634262  0.1053900412311037  0.0000000000000000   T   T   T
  0.7283366554591808  0.1471032922850242  0.0000000000000000   T   T   T
  0.7701913066840120  0.1050468458287170  0.0000000000000000   T   T   T
  0.8535391414317530  0.1464955244915700  0.0000000000000000   T   T   T
  0.8953413258464238  0.1046923696306479  0.0000000000000000   T   T   T
  0.9786961581458016  0.1459584540202243  0.0000000000000000   T   T   T
  0.0205135057317563  0.2293958726309313  0.0000000000000000   T   T   T
  0.1037619722072307  0.2704261682946338  0.0000000000000000   T   T   T
  0.1450062588862480  0.2282372277912970  0.0000000000000000   T   T   T
  0.2279470787971221  0.2692721077647633  0.0000000000000000   T   T   T
  0.2692508466547565  0.2279682022060356  0.0000000000000000   T   T   T
  0.3945615827646165  0.2288131080069462  0.0000000000000000   T   T   T
  0.5187619736878304  0.2298995837417124  0.0000000000000000   T   T   T
  0.6015698013431177  0.2740634383930782  0.0000000000000000   T   T   T
  0.6438624431797351  0.2313837007870632  0.0000000000000000   T   T   T
  0.7273120730179627  0.2727234537918690  0.0000000000000000   T   T   T
  0.7694074152470378  0.2306270885248196  0.0000000000000000   T   T   T
  0.8529325340318223  0.2716993059927049  0.0000000000000000   T   T   T
  0.8949894152870996  0.2298438029825647  0.0000000000000000   T   T   T
  0.9784313697547518  0.2710187842310887  0.0000000000000000   T   T   T
  0.0203966001354416  0.3542746088047934  0.0000000000000000   T   T   T
  0.1038654731814006  0.3952036885092767  0.0000000000000000   T   T   T
  0.1459068468408944  0.3540441151889269  0.0000000000000000   T   T   T
  0.2287912450770548  0.3945843467721062  0.0000000000000000   T   T   T
  0.3495354036273497  0.3905950216697676  0.0000000000000000   T   T   T
  0.3905735494476303  0.3495561856439835  0.0000000000000000   T   T   T
  0.5160732126432066  0.3554016591817160  0.0000000000000000   T   T   T
  0.6428802072132456  0.3571541645578264  0.0000000000000000   T   T   T
  0.7259711956171486  0.3984648342235744  0.0000000000000000   T   T   T
  0.7686513185208170  0.3561724485662268  0.0000000000000000   T   T   T
  0.8524157945461752  0.3967240965064036  0.0000000000000000   T   T   T
  0.8946450978907663  0.3548942554261245  0.0000000000000000   T   T   T
  0.9783907758946313  0.3959471142896049  0.0000000000000000   T   T   T
  0.0210678811075979  0.4792217623565307  0.0000000000000000   T   T   T
  0.1049616580405512  0.5202588500138958  0.0000000000000000   T   T   T
  0.1471169711500053  0.4784506072464012  0.0000000000000000   T   T   T
  0.2298785146040743  0.5187830507656983  0.0000000000000000   T   T   T
  0.3553801471013429  0.5160945693683274  0.0000000000000000   T   T   T
  0.6446322468193415  0.4839616386145451  0.0000000000000000   T   T   T
  0.7701346424073137  0.4812729332326668  0.0000000000000000   T   T   T
  0.8528962754669678  0.5216042432277419  0.0000000000000000   T   T   T
  0.8950524974381295  0.4797968443112595  0.0000000000000000   T   T   T
  0.9789456533173606  0.5208326246372437  0.0000000000000000   T   T   T
  0.0216207198101586  0.6041083999799923  0.0000000000000000   T   T   T
  0.1053673970626505  0.6451639276040524  0.0000000000000000   T   T   T
  0.1475982524943973  0.6033336141805066  0.0000000000000000   T   T   T
  0.2313620470596476  0.6438836265077228  0.0000000000000000   T   T   T
  0.2740431115742510  0.6015919199078965  0.0000000000000000   T   T   T
  0.3571332066496282  0.6429016456370178  0.0000000000000000   T   T   T
  0.4839392591449894  0.6446536879207372  0.0000000000000000   T   T   T
  0.6094409958276259  0.6505015578598119  0.0000000000000000   T   T   T
  0.6504782984314019  0.6094611024341958  0.0000000000000000   T   T   T
  0.7712210996142232  0.6054730788293341  0.0000000000000000   T   T   T
  0.8541052508834852  0.6460106740020919  0.0000000000000000   T   T   T
  0.8961458551523975  0.6048504968916788  0.0000000000000000   T   T   T
  0.9796152732986769  0.6457818519688203  0.0000000000000000   T   T   T
  0.0215826915035322  0.7290400880130150  0.0000000000000000   T   T   T
  0.1050239410978477  0.7702124841980549  0.0000000000000000   T   T   T
  0.1470816312564551  0.7283588634610965  0.0000000000000000   T   T   T
  0.2306051111770486  0.7694293629410467  0.0000000000000000   T   T   T
  0.2727030655180087  0.7273341573838934  0.0000000000000000   T   T   T
  0.3561516550566992  0.7686742069825954  0.0000000000000000   T   T   T
  0.3984436268538474  0.7259929273218972  0.0000000000000000   T   T   T
  0.4812512975691590  0.7701574471899733  0.0000000000000000   T   T   T
  0.6054501767059222  0.7712434672395148  0.0000000000000000   T   T   T
  0.7307638999443355  0.7720900786781755  0.0000000000000000   T   T   T
  0.7720670784944517  0.7307852041793481  0.0000000000000000   T   T   T
  0.8550065708002776  0.7718200089766896  0.0000000000000000   T   T   T
  0.8962500730992744  0.7296280463118876  0.0000000000000000   T   T   T
  0.9794986342125043  0.7706587253432247  0.0000000000000000   T   T   T
  0.0213153182556667  0.8540954407878729  0.0000000000000000   T   T   T
  0.1046698020604708  0.8953621798648470  0.0000000000000000   T   T   T
  0.1464726125244695  0.8535611418614550  0.0000000000000000   T   T   T
  0.2298221360352741  0.8950112078282189  0.0000000000000000   T   T   T
  0.2716775791175436  0.8529538785007489  0.0000000000000000   T   T   T
  0.3548719651127570  0.8946674629337537  0.0000000000000000   T   T   T
  0.3967032228434775  0.8524380695934823  0.0000000000000000   T   T   T
  0.4797766050488690  0.8950744075521371  0.0000000000000000   T   T   T
  0.5215844788301069  0.8529185891985307  0.0000000000000000   T   T   T
  0.6048301096209698  0.8961701543684626  0.0000000000000000   T   T   T
  0.6459894117985669  0.8541283478230568  0.0000000000000000   T   T   T
  0.7296066322958978  0.8962729810110162  0.0000000000000000   T   T   T
  0.7717963223405206  0.8550286982497255  0.0000000000000000   T   T   T
  0.8547050973831318  0.8964186449073921  0.0000000000000000   T   T   T
  0.8963959679567992  0.8547267623864059  0.0000000000000000   T   T   T
  0.9797582021605535  0.8959525371021186  0.0000000000000000   T   T   T
  0.3518143158314118  0.2673469555965227  0.0000000000000000   T   T   T
  0.4769829391703624  0.2720495313880278  0.0000000000000000   T   T   T
  0.2673257165421816  0.3518360993773229  0.0000000000000000   T   T   T
  0.4712395632136932  0.3892523031105597  0.0000000000000000   T   T   T
  0.5998603504847893  0.4001742952533220  0.0000000000000000   T   T   T
  0.2720284971360130  0.4770051209445114  0.0000000000000000   T   T   T
  0.3892308451025954  0.4712605965647398  0.0000000000000000   T   T   T
  0.6107823900974978  0.5287954877331842  0.0000000000000000   T   T   T
  0.7279847122998788  0.5230517011663309  0.0000000000000000   T   T   T
  0.4001527757719714  0.5998815237388229  0.0000000000000000   T   T   T
  0.5287738378737217  0.6108039732952264  0.0000000000000000   T   T   T
  0.7326878400484702  0.6482208608929056  0.0000000000000000   T   T   T
  0.5230296725423713  0.7280060727281565  0.0000000000000000   T   T   T
  0.6481987229050716  0.7327095985281176  0.0000000000000000   T   T   T
  0.5000068024152213  0.5000278785408767  0.0000000000000000   T   T   T
 
  0.00000000E+00  0.00000000E+00  0.00000000E+00
  0.00000000E+00  0.00000000E+00  0.00000000E+00
  0.00000000E+00  0.00000000E+00  0.00000000E+00
  0.00000000E+00  0.00000000E+00  0.00000000E+00
  0.00000000E+00  0.00000000E+00  0.00000000E+00
  0.00000000E+00  0.00000000E+00  0.00000000E+00
  0.00000000E+00  0.00000000E+00  0.00000000E+00
  0.00000000E+00  0.00000000E+00  0.00000000E+00
  0.00000000E+00  0.00000000E+00  0.00000000E+00
  0.00000000E+00  0.00000000E+00  0.00000000E+00
  0.00000000E+00  0.00000000E+00  0.00000000E+00
  0.00000000E+00  0.00000000E+00  0.00000000E+00
  0.00000000E+00  0.00000000E+00  0.00000000E+00
  0.00000000E+00  0.00000000E+00  0.00000000E+00
  0.00000000E+00  0.00000000E+00  0.00000000E+00
  0.00000000E+00  0.00000000E+00  0.00000000E+00
  0.00000000E+00  0.00000000E+00  0.00000000E+00
  0.00000000E+00  0.00000000E+00  0.00000000E+00
  0.00000000E+00  0.00000000E+00  0.00000000E+00
  0.00000000E+00  0.00000000E+00  0.00000000E+00
  0.00000000E+00  0.00000000E+00  0.00000000E+00
  0.00000000E+00  0.00000000E+00  0.00000000E+00
  0.00000000E+00  0.00000000E+00  0.00000000E+00
  0.00000000E+00  0.00000000E+00  0.00000000E+00
  0.00000000E+00  0.00000000E+00  0.00000000E+00
  0.00000000E+00  0.00000000E+00  0.00000000E+00
  0.00000000E+00  0.00000000E+00  0.00000000E+00
  0.00000000E+00  0.00000000E+00  0.00000000E+00
  0.00000000E+00  0.00000000E+00  0.00000000E+00
  0.00000000E+00  0.00000000E+00  0.00000000E+00
  0.00000000E+00  0.00000000E+00  0.00000000E+00
  0.00000000E+00  0.00000000E+00  0.00000000E+00
  0.00000000E+00  0.00000000E+00  0.00000000E+00
  0.00000000E+00  0.00000000E+00  0.00000000E+00
  0.00000000E+00  0.00000000E+00  0.00000000E+00
  0.00000000E+00  0.00000000E+00  0.00000000E+00
  0.00000000E+00  0.00000000E+00  0.00000000E+00
  0.00000000E+00  0.00000000E+00  0.00000000E+00
  0.00000000E+00  0.00000000E+00  0.00000000E+00
  0.00000000E+00  0.00000000E+00  0.00000000E+00
  0.00000000E+00  0.00000000E+00  0.00000000E+00
  0.00000000E+00  0.00000000E+00  0.00000000E+00
  0.00000000E+00  0.00000000E+00  0.00000000E+00
  0.00000000E+00  0.00000000E+00  0.00000000E+00
  0.00000000E+00  0.00000000E+00  0.00000000E+00
  0.00000000E+00  0.00000000E+00  0.00000000E+00
  0.00000000E+00  0.00000000E+00  0.00000000E+00
  0.00000000E+00  0.00000000E+00  0.00000000E+00
  0.00000000E+00  0.00000000E+00  0.00000000E+00
  0.00000000E+00  0.00000000E+00  0.00000000E+00
  0.00000000E+00  0.00000000E+00  0.00000000E+00
  0.00000000E+00  0.00000000E+00  0.00000000E+00
  0.00000000E+00  0.00000000E+00  0.00000000E+00
  0.00000000E+00  0.00000000E+00  0.00000000E+00
  0.00000000E+00  0.00000000E+00  0.00000000E+00
  0.00000000E+00  0.00000000E+00  0.00000000E+00
  0.00000000E+00  0.00000000E+00  0.00000000E+00
  0.00000000E+00  0.00000000E+00  0.00000000E+00
  0.00000000E+00  0.00000000E+00  0.00000000E+00
  0.00000000E+00  0.00000000E+00  0.00000000E+00
  0.00000000E+00  0.00000000E+00  0.00000000E+00
  0.00000000E+00  0.00000000E+00  0.00000000E+00
  0.00000000E+00  0.00000000E+00  0.00000000E+00
  0.00000000E+00  0.00000000E+00  0.00000000E+00
  0.00000000E+00  0.00000000E+00  0.00000000E+00
  0.00000000E+00  0.00000000E+00  0.00000000E+00
  0.00000000E+00  0.00000000E+00  0.00000000E+00
  0.00000000E+00  0.00000000E+00  0.00000000E+00
  0.00000000E+00  0.00000000E+00  0.00000000E+00
  0.00000000E+00  0.00000000E+00  0.00000000E+00
  0.00000000E+00  0.00000000E+00  0.00000000E+00
  0.00000000E+00  0.00000000E+00  0.00000000E+00
  0.00000000E+00  0.00000000E+00  0.00000000E+00
  0.00000000E+00  0.00000000E+00  0.00000000E+00
  0.00000000E+00  0.00000000E+00  0.00000000E+00
  0.00000000E+00  0.00000000E+00  0.00000000E+00
  0.00000000E+00  0.00000000E+00  0.00000000E+00
  0.00000000E+00  0.00000000E+00  0.00000000E+00
  0.00000000E+00  0.00000000E+00  0.00000000E+00
  0.00000000E+00  0.00000000E+00  0.00000000E+00
  0.00000000E+00  0.00000000E+00  0.00000000E+00
  0.00000000E+00  0.00000000E+00  0.00000000E+00
  0.00000000E+00  0.00000000E+00  0.00000000E+00
  0.00000000E+00  0.00000000E+00  0.00000000E+00
  0.00000000E+00  0.00000000E+00  0.00000000E+00
  0.00000000E+00  0.00000000E+00  0.00000000E+00
  0.00000000E+00  0.00000000E+00  0.00000000E+00
  0.00000000E+00  0.00000000E+00  0.00000000E+00
  0.00000000E+00  0.00000000E+00  0.00000000E+00
  0.00000000E+00  0.00000000E+00  0.00000000E+00
  0.00000000E+00  0.00000000E+00  0.00000000E+00
  0.00000000E+00  0.00000000E+00  0.00000000E+00
  0.00000000E+00  0.00000000E+00  0.00000000E+00
  0.00000000E+00  0.00000000E+00  0.00000000E+00
  0.00000000E+00  0.00000000E+00  0.00000000E+00
  0.00000000E+00  0.00000000E+00  0.00000000E+00
  0.00000000E+00  0.00000000E+00  0.00000000E+00
  0.00000000E+00  0.00000000E+00  0.00000000E+00
  0.00000000E+00  0.00000000E+00  0.00000000E+00
  0.00000000E+00  0.00000000E+00  0.00000000E+00
  0.00000000E+00  0.00000000E+00  0.00000000E+00
  0.00000000E+00  0.00000000E+00  0.00000000E+00
  0.00000000E+00  0.00000000E+00  0.00000000E+00
  0.00000000E+00  0.00000000E+00  0.00000000E+00
  0.00000000E+00  0.00000000E+00  0.00000000E+00
  0.00000000E+00  0.00000000E+00  0.00000000E+00
  0.00000000E+00  0.00000000E+00  0.00000000E+00
  0.00000000E+00  0.00000000E+00  0.00000000E+00
  0.00000000E+00  0.00000000E+00  0.00000000E+00
  0.00000000E+00  0.00000000E+00  0.00000000E+00
  0.00000000E+00  0.00000000E+00  0.00000000E+00
  0.00000000E+00  0.00000000E+00  0.00000000E+00
  0.00000000E+00  0.00000000E+00  0.00000000E+00
  0.00000000E+00  0.00000000E+00  0.00000000E+00
  0.00000000E+00  0.00000000E+00  0.00000000E+00
  0.00000000E+00  0.00000000E+00  0.00000000E+00
  0.00000000E+00  0.00000000E+00  0.00000000E+00
  0.00000000E+00  0.00000000E+00  0.00000000E+00
  0.00000000E+00  0.00000000E+00  0.00000000E+00
  0.00000000E+00  0.00000000E+00  0.00000000E+00
  0.00000000E+00  0.00000000E+00  0.00000000E+00
  0.00000000E+00  0.00000000E+00  0.00000000E+00
  0.00000000E+00  0.00000000E+00  0.00000000E+00
  0.00000000E+00  0.00000000E+00  0.00000000E+00
  0.00000000E+00  0.00000000E+00  0.00000000E+00
  0.00000000E+00  0.00000000E+00  0.00000000E+00
  0.00000000E+00  0.00000000E+00  0.00000000E+00
