H    C    N    Ru                       
   1.00000000000000     
    17.0990250000000010   -9.8721270000000008    0.0000000000000000
     0.0000000000000000   19.7442530000000005    0.0000000000000000
     0.0000000000000000    0.0000000000000000   20.0000000000000000
   H    C    N    Ru
     8   116    13     1
Selective dynamics
Direct
  0.3961146417856417  0.3919676379167159  0.1517997730278937   T   T   T
  0.4161758373717001  0.4824265356238426  0.1882936884981709   T   T   T
  0.4399461774401883  0.4188341044587499  0.2324511017956057   T   T   T
  0.5132920804611756  0.4994055635699843  0.0982012791504383   T   T   T
  0.5417136983848024  0.4415588123470270  0.1446099947810688   T   T   T
  0.5909652696129120  0.5419314696776375  0.2378067704387611   T   T   T
  0.5579943422137313  0.5978271215756177  0.1931637091972502   T   T   T
  0.6359151554551379  0.5869590521418601  0.1607757854785325   T   T   T
  0.4386184798525106  0.4415951296850923  0.1824385766044478   T   T   T
  0.5196450647535235  0.4829636752332589  0.1496166121657688   T   T   T
  0.5794598187722165  0.5562416536661847  0.1873543574796298   T   T   T
  0.0209824236524434  0.9795631457134590  0.0026596328385899   T   T   T
  0.1041952627053813  0.0208781331798219  0.0025228945795380   T   T   T
  0.1458963691368719  0.9791893707518065  0.0020498024317820   T   T   T
  0.2293513670922956  0.0210571041073016  0.0018436585491788   T   T   T
  0.2708744467254798  0.9788824579480554  0.0011344472366820   T   T   T
  0.3541059024412473  0.0208617601773425  0.0007683192151492   T   T   T
  0.3957352015732856  0.9786769240898368  0.0002164683352556   T   T   T
  0.4790453464332161  0.0212629918728986  0.0001082177994496   T   T   T
  0.5206185582805898  0.9789791419871715  0.0000979771903818   T   T   T
  0.6039770638719403  0.0216654914771618  0.0005247770207395   T   T   T
  0.6456906358583163  0.9795587917265667  0.0011864478462472   T   T   T
  0.7289722599563701  0.0216347885886638  0.0017381956748441   T   T   T
  0.7705375395906294  0.9797815894103645  0.0025535915016256   T   T   T
  0.8539585841123261  0.0216896359861128  0.0026945628728687   T   T   T
  0.8960265499850061  0.9802157731078388  0.0030418586793375   T   T   T
  0.9791651445527733  0.0214933284103892  0.0028194196709391   T   T   T
  0.0204185902220340  0.1046865949763031  0.0026557156423419   T   T   T
  0.1038256768736022  0.1459783348704604  0.0027400278443847   T   T   T
  0.1454855681568920  0.1042802788836088  0.0027242208908870   T   T   T
  0.2284762654966705  0.1458020095742905  0.0022986950509494   T   T   T
  0.2704474240781124  0.1043041118011586  0.0018745082969383   T   T   T
  0.3541045633537380  0.1466103538897420  0.0007780415289716   T   T   T
  0.3950895467688385  0.1042587618718194  0.0005249973052650   T   T   T
  0.4783627602921014  0.1474192641909443 -0.0005246851672868   T   T   T
  0.5201897732283287  0.1051871238616183 -0.0003143818473946   T   T   T
  0.6032354932271743  0.1477153721066950  0.9992892037889396   T   T   T
  0.6450405755808462  0.1053552436117879  0.0000325219752315   T   T   T
  0.7283695264345690  0.1472457928627770  0.0001506241279714   T   T   T
  0.7702114564076626  0.1052421256757054  0.0011001240628089   T   T   T
  0.8534771248143584  0.1467387981593160  0.0013120440489532   T   T   T
  0.8953344601191943  0.1049843941812539  0.0021186427605454   T   T   T
  0.9787318631906681  0.1463778207016048  0.0022679358896789   T   T   T
  0.0205887311508979  0.2298074981777459  0.0018045475165788   T   T   T
  0.1038953499105153  0.2708840398844623  0.0016131638747299   T   T   T
  0.1453707741167366  0.2289131163001215  0.0021204955898921   T   T   T
  0.2284077527650117  0.2701211213311373  0.0011725402928522   T   T   T
  0.2695937511229914  0.2287397158337870  0.0013569383738161   T   T   T
  0.3946277043620613  0.2292947153484203 -0.0008211138543650   T   T   T
  0.5186437628156455  0.2300251534025635  0.9979832436013483   T   T   T
  0.6014306820570101  0.2742827121631276  0.9966510865830223   T   T   T
  0.6437959352714007  0.2315051785924181  0.9979695414914408   T   T   T
  0.7271614403770522  0.2728658614415080  0.9981336956922364   T   T   T
  0.7693699002559611  0.2307215732809371  0.9993914304898337   T   T   T
  0.8528771344383989  0.2718561499397179  0.9999305015968764   T   T   T
  0.8949564885648760  0.2301259785828904  0.0008381040175423   T   T   T
  0.9784531586760211  0.2713511856266264  0.0011572421170363   T   T   T
  0.0203989427176337  0.3545314283683973  0.0005104425389611   T   T   T
  0.1039084140427747  0.3954640563255500 -0.0000726603706621   T   T   T
  0.1460586162217974  0.3544188158325289  0.0002243250447706   T   T   T
  0.2291188925249218  0.3950590524278708  0.9984430214961915   T   T   T
  0.3501274217658383  0.3914207074945167  0.9902700345301739   T   T   T
  0.3910835160638294  0.3501720290943983  0.9907533649995769   T   T   T
  0.5156727998502143  0.3550122288066880  0.9898956832186534   T   T   T
  0.6424279772248117  0.3572817817516905  0.9946512444056980   T   T   T
  0.7255949842708339  0.3986117851745631  0.9960059251444224   T   T   T
  0.7683205973034446  0.3562847488225842  0.9975174634240328   T   T   T
  0.8522103481099670  0.3969122206559976  0.9986031220305298   T   T   T
  0.8945803752717871  0.3551447877742989  0.9996120950389250   T   T   T
  0.9782432084071003  0.3961440955766109 -0.0000427503235725   T   T   T
  0.0208605068903134  0.4794656969188581 -0.0004726477211329   T   T   T
  0.1047956591719393  0.5206389027567334  0.9988541045198490   T   T   T
  0.1471181781564413  0.4787860056066036  0.9985594759602759   T   T   T
  0.2297475485270786  0.5189418841356470  0.9967795054992662   T   T   T
  0.3551282538904385  0.5166160249652090  0.9887574715358743   T   T   T
  0.6439249571010500  0.4841302662144034  0.9891622145767285   T   T   T
  0.7695106755213855  0.4814905978291162  0.9967367224673283   T   T   T
  0.8523012493127761  0.5217935429451619  0.9982432382408400   T   T   T
  0.8946072232974573  0.4799293993562545  0.9988008799232513   T   T   T
  0.9786074888031887  0.5210719661451289 -0.0006556251494593   T   T   T
  0.0213138867491659  0.6043631452201429  0.9996034564431531   T   T   T
  0.1049598354890378  0.6454663200767481  0.9991727143104419   T   T   T
  0.1472191315391616  0.6036512939342102  0.9984012264752199   T   T   T
  0.2310316513409252  0.6443151388919099  0.9970439461128298   T   T   T
  0.2736165669274128  0.6019417298185372  0.9955333749594878   T   T   T
  0.3566599262861476  0.6430019123431205  0.9937955009670789   T   T   T
  0.4837279712676269  0.6446024503957628  0.9899326138849593   T   T   T
  0.6506425729756737  0.6091519379807516  0.9919061470831957   T   T   T
  0.7708424336625004  0.6055818266927105  0.9983837148244751   T   T   T
  0.8534696266528590  0.6461605124819655 -0.0001497227810558   T   T   T
  0.8958537011665931  0.6050540086778478  0.9993900432296103   T   T   T
  0.9791462562282441  0.6460412453317868 -0.0000766654382829   T   T   T
  0.0214374410138502  0.7293408850164428  0.0005971038077895   T   T   T
  0.1047904612837635  0.7705501665061619  0.0002506675245907   T   T   T
  0.1467859088133112  0.7287146429156031  0.9994022010862187   T   T   T
  0.2301739007850630  0.7698341896416613  0.9987758508556406   T   T   T
  0.2722408935747963  0.7276831976629461  0.9974607780414233   T   T   T
  0.3555865210588842  0.7688744272587913  0.9972049661612279   T   T   T
  0.3977070718639478  0.7262279538852494  0.9957445317087871   T   T   T
  0.4807220053868193  0.7698951886751283  0.9972810090942309   T   T   T
  0.6045005714411061  0.7698912343420864 -0.0005975081587564   T   T   T
  0.7308881449941076  0.7722959997305736  0.0018809785575246   T   T   T
  0.7729250001751766  0.7313282205978461  0.0016152864600909   T   T   T
  0.8549913885889223  0.7717925164662777  0.0023265271651982   T   T   T
  0.8963400021515268  0.7297364499247549  0.0014189049328451   T   T   T
  0.9794036542878063  0.7708766919645453  0.0014196456865088   T   T   T
  0.0212508219305525  0.8544261921786072  0.0019211986853618   T   T   T
  0.1044387546842043  0.8957455178709357  0.0015730887239565   T   T   T
  0.1462934437548297  0.8539000385188301  0.0007259848089917   T   T   T
  0.2295972659521731  0.8954225927384896  0.0005095251295343   T   T   T
  0.2713509759521320  0.8533184705427008  0.9995850235780642   T   T   T
  0.3546097563994793  0.8949810173663585  0.9995559114439263   T   T   T
  0.3963535560689022  0.8526986082827049  0.9987053170292892   T   T   T
  0.4794294098300348  0.8949776246381868  0.9993814210038502   T   T   T
  0.5212364236306558  0.8527448158422573  0.9992385665609540   T   T   T
  0.6047910354474862  0.8960901298006781  0.0007943353045595   T   T   T
  0.6456940698094810  0.8538918340085222  0.0013264123752620   T   T   T
  0.7291731745273053  0.8960909261239753  0.0026463430084185   T   T   T
  0.7719156242755094  0.8553643584131685  0.0031131023051381   T   T   T
  0.8549118233382402  0.8969953390428048  0.0033716265379218   T   T   T
  0.8964035561999332  0.8551938289793063  0.0030080503401298   T   T   T
  0.9796291874417544  0.8963404501856767  0.0025809015894074   T   T   T
  0.6481620863080764  0.7316581495807476 -0.0008827392672040   T   T   T
  0.5283329937068718  0.6077149624388088  0.9810481539334784   T   T   T
  0.3521507679970874  0.2683867292570849 -0.0005118906059940   T   T   T
  0.4772105127610689  0.2723735034310085  0.9976701082859319   T   T   T
  0.2681049115725850  0.3527166983325734 -0.0012504844689827   T   T   T
  0.4706319589500477  0.3875374910889454  0.9803636292770646   T   T   T
  0.5991929505751148  0.4004380758580671  0.9911894152673877   T   T   T
  0.2720331636703444  0.4773083282444761  0.9963620938522929   T   T   T
  0.3884100271627111  0.4716197601989261  0.9795126585343161   T   T   T
  0.6105752277325109  0.5305970367483401  0.9811337550514041   T   T   T
  0.7268624798656718  0.5229798189921993  0.9962944884862379   T   T   T
  0.3990177366346486  0.6001730353003147  0.9906450321397871   T   T   T
  0.6108218129127102  0.6505755067983934  0.9922413994066872   T   T   T
  0.7316561929182327  0.6484670921598622 -0.0005283131089613   T   T   T
  0.5211169179001091  0.7276123258688819  0.9970514334466555   T   T   T
  0.4989633089297110  0.5008962818768864  0.9672462259369948   T   T   T
 
  0.00000000E+00  0.00000000E+00  0.00000000E+00
  0.00000000E+00  0.00000000E+00  0.00000000E+00
  0.00000000E+00  0.00000000E+00  0.00000000E+00
  0.00000000E+00  0.00000000E+00  0.00000000E+00
  0.00000000E+00  0.00000000E+00  0.00000000E+00
  0.00000000E+00  0.00000000E+00  0.00000000E+00
  0.00000000E+00  0.00000000E+00  0.00000000E+00
  0.00000000E+00  0.00000000E+00  0.00000000E+00
  0.00000000E+00  0.00000000E+00  0.00000000E+00
  0.00000000E+00  0.00000000E+00  0.00000000E+00
  0.00000000E+00  0.00000000E+00  0.00000000E+00
  0.00000000E+00  0.00000000E+00  0.00000000E+00
  0.00000000E+00  0.00000000E+00  0.00000000E+00
  0.00000000E+00  0.00000000E+00  0.00000000E+00
  0.00000000E+00  0.00000000E+00  0.00000000E+00
  0.00000000E+00  0.00000000E+00  0.00000000E+00
  0.00000000E+00  0.00000000E+00  0.00000000E+00
  0.00000000E+00  0.00000000E+00  0.00000000E+00
  0.00000000E+00  0.00000000E+00  0.00000000E+00
  0.00000000E+00  0.00000000E+00  0.00000000E+00
  0.00000000E+00  0.00000000E+00  0.00000000E+00
  0.00000000E+00  0.00000000E+00  0.00000000E+00
  0.00000000E+00  0.00000000E+00  0.00000000E+00
  0.00000000E+00  0.00000000E+00  0.00000000E+00
  0.00000000E+00  0.00000000E+00  0.00000000E+00
  0.00000000E+00  0.00000000E+00  0.00000000E+00
  0.00000000E+00  0.00000000E+00  0.00000000E+00
  0.00000000E+00  0.00000000E+00  0.00000000E+00
  0.00000000E+00  0.00000000E+00  0.00000000E+00
  0.00000000E+00  0.00000000E+00  0.00000000E+00
  0.00000000E+00  0.00000000E+00  0.00000000E+00
  0.00000000E+00  0.00000000E+00  0.00000000E+00
  0.00000000E+00  0.00000000E+00  0.00000000E+00
  0.00000000E+00  0.00000000E+00  0.00000000E+00
  0.00000000E+00  0.00000000E+00  0.00000000E+00
  0.00000000E+00  0.00000000E+00  0.00000000E+00
  0.00000000E+00  0.00000000E+00  0.00000000E+00
  0.00000000E+00  0.00000000E+00  0.00000000E+00
  0.00000000E+00  0.00000000E+00  0.00000000E+00
  0.00000000E+00  0.00000000E+00  0.00000000E+00
  0.00000000E+00  0.00000000E+00  0.00000000E+00
  0.00000000E+00  0.00000000E+00  0.00000000E+00
  0.00000000E+00  0.00000000E+00  0.00000000E+00
  0.00000000E+00  0.00000000E+00  0.00000000E+00
  0.00000000E+00  0.00000000E+00  0.00000000E+00
  0.00000000E+00  0.00000000E+00  0.00000000E+00
  0.00000000E+00  0.00000000E+00  0.00000000E+00
  0.00000000E+00  0.00000000E+00  0.00000000E+00
  0.00000000E+00  0.00000000E+00  0.00000000E+00
  0.00000000E+00  0.00000000E+00  0.00000000E+00
  0.00000000E+00  0.00000000E+00  0.00000000E+00
  0.00000000E+00  0.00000000E+00  0.00000000E+00
  0.00000000E+00  0.00000000E+00  0.00000000E+00
  0.00000000E+00  0.00000000E+00  0.00000000E+00
  0.00000000E+00  0.00000000E+00  0.00000000E+00
  0.00000000E+00  0.00000000E+00  0.00000000E+00
  0.00000000E+00  0.00000000E+00  0.00000000E+00
  0.00000000E+00  0.00000000E+00  0.00000000E+00
  0.00000000E+00  0.00000000E+00  0.00000000E+00
  0.00000000E+00  0.00000000E+00  0.00000000E+00
  0.00000000E+00  0.00000000E+00  0.00000000E+00
  0.00000000E+00  0.00000000E+00  0.00000000E+00
  0.00000000E+00  0.00000000E+00  0.00000000E+00
  0.00000000E+00  0.00000000E+00  0.00000000E+00
  0.00000000E+00  0.00000000E+00  0.00000000E+00
  0.00000000E+00  0.00000000E+00  0.00000000E+00
  0.00000000E+00  0.00000000E+00  0.00000000E+00
  0.00000000E+00  0.00000000E+00  0.00000000E+00
  0.00000000E+00  0.00000000E+00  0.00000000E+00
  0.00000000E+00  0.00000000E+00  0.00000000E+00
  0.00000000E+00  0.00000000E+00  0.00000000E+00
  0.00000000E+00  0.00000000E+00  0.00000000E+00
  0.00000000E+00  0.00000000E+00  0.00000000E+00
  0.00000000E+00  0.00000000E+00  0.00000000E+00
  0.00000000E+00  0.00000000E+00  0.00000000E+00
  0.00000000E+00  0.00000000E+00  0.00000000E+00
  0.00000000E+00  0.00000000E+00  0.00000000E+00
  0.00000000E+00  0.00000000E+00  0.00000000E+00
  0.00000000E+00  0.00000000E+00  0.00000000E+00
  0.00000000E+00  0.00000000E+00  0.00000000E+00
  0.00000000E+00  0.00000000E+00  0.00000000E+00
  0.00000000E+00  0.00000000E+00  0.00000000E+00
  0.00000000E+00  0.00000000E+00  0.00000000E+00
  0.00000000E+00  0.00000000E+00  0.00000000E+00
  0.00000000E+00  0.00000000E+00  0.00000000E+00
  0.00000000E+00  0.00000000E+00  0.00000000E+00
  0.00000000E+00  0.00000000E+00  0.00000000E+00
  0.00000000E+00  0.00000000E+00  0.00000000E+00
  0.00000000E+00  0.00000000E+00  0.00000000E+00
  0.00000000E+00  0.00000000E+00  0.00000000E+00
  0.00000000E+00  0.00000000E+00  0.00000000E+00
  0.00000000E+00  0.00000000E+00  0.00000000E+00
  0.00000000E+00  0.00000000E+00  0.00000000E+00
  0.00000000E+00  0.00000000E+00  0.00000000E+00
  0.00000000E+00  0.00000000E+00  0.00000000E+00
  0.00000000E+00  0.00000000E+00  0.00000000E+00
  0.00000000E+00  0.00000000E+00  0.00000000E+00
  0.00000000E+00  0.00000000E+00  0.00000000E+00
  0.00000000E+00  0.00000000E+00  0.00000000E+00
  0.00000000E+00  0.00000000E+00  0.00000000E+00
  0.00000000E+00  0.00000000E+00  0.00000000E+00
  0.00000000E+00  0.00000000E+00  0.00000000E+00
  0.00000000E+00  0.00000000E+00  0.00000000E+00
  0.00000000E+00  0.00000000E+00  0.00000000E+00
  0.00000000E+00  0.00000000E+00  0.00000000E+00
  0.00000000E+00  0.00000000E+00  0.00000000E+00
  0.00000000E+00  0.00000000E+00  0.00000000E+00
  0.00000000E+00  0.00000000E+00  0.00000000E+00
  0.00000000E+00  0.00000000E+00  0.00000000E+00
  0.00000000E+00  0.00000000E+00  0.00000000E+00
  0.00000000E+00  0.00000000E+00  0.00000000E+00
  0.00000000E+00  0.00000000E+00  0.00000000E+00
  0.00000000E+00  0.00000000E+00  0.00000000E+00
  0.00000000E+00  0.00000000E+00  0.00000000E+00
  0.00000000E+00  0.00000000E+00  0.00000000E+00
  0.00000000E+00  0.00000000E+00  0.00000000E+00
  0.00000000E+00  0.00000000E+00  0.00000000E+00
  0.00000000E+00  0.00000000E+00  0.00000000E+00
  0.00000000E+00  0.00000000E+00  0.00000000E+00
  0.00000000E+00  0.00000000E+00  0.00000000E+00
  0.00000000E+00  0.00000000E+00  0.00000000E+00
  0.00000000E+00  0.00000000E+00  0.00000000E+00
  0.00000000E+00  0.00000000E+00  0.00000000E+00
  0.00000000E+00  0.00000000E+00  0.00000000E+00
  0.00000000E+00  0.00000000E+00  0.00000000E+00
  0.00000000E+00  0.00000000E+00  0.00000000E+00
  0.00000000E+00  0.00000000E+00  0.00000000E+00
  0.00000000E+00  0.00000000E+00  0.00000000E+00
  0.00000000E+00  0.00000000E+00  0.00000000E+00
  0.00000000E+00  0.00000000E+00  0.00000000E+00
  0.00000000E+00  0.00000000E+00  0.00000000E+00
  0.00000000E+00  0.00000000E+00  0.00000000E+00
  0.00000000E+00  0.00000000E+00  0.00000000E+00
  0.00000000E+00  0.00000000E+00  0.00000000E+00
  0.00000000E+00  0.00000000E+00  0.00000000E+00
  0.00000000E+00  0.00000000E+00  0.00000000E+00
  0.00000000E+00  0.00000000E+00  0.00000000E+00
  0.00000000E+00  0.00000000E+00  0.00000000E+00
