H    C    N    Ru                       
   1.00000000000000     
    17.0990255555554995   -9.8721253333333294    0.0000000000000000
     0.0000000000000000   19.7442530000000005    0.0000000000000000
     0.0000000000000000    0.0000000000000000   20.0000000000000000
   H    C    N    Ru
     8   115    14     1
Selective dynamics
Direct
  0.3486078728121242  0.3958660108569703  0.1654409373890289   T   T   T
  0.4231145163643433  0.4794423658813471  0.2074671306931535   T   T   T
  0.4019690309733051  0.3836922506205411  0.2314293605276063   T   T   T
  0.4904825621341189  0.5605458060922075  0.1082277333213639   T   T   T
  0.4495282764386559  0.3649995244594137  0.1215314891148296   T   T   T
  0.5579873850716197  0.4853422002483896  0.2144162218749557   T   T   T
  0.5872000227029801  0.5255473026220301  0.1345016439462370   T   T   T
  0.5822537926748623  0.4347919284309043  0.1524792747928245   T   T   T
  0.4071174317579178  0.4211278543814743  0.1883033455961325   T   T   T
  0.4668009608871628  0.4250387763582282  0.1378029287781573   T   T   T
  0.5521124096967256  0.4681931277258329  0.1613154776219830   T   T   T
  0.0205585984764127  0.9791167967341963  0.9881259711019510   T   T   T
  0.1039815477996413  0.0207966698234117  0.9886459110227719   T   T   T
  0.1456985135118956  0.9792195587517085  0.9896523013217333   T   T   T
  0.2293212360783343  0.0214220549152202  0.9907869694843967   T   T   T
  0.2706950728058146  0.9790616880337666  0.9927810801390962   T   T   T
  0.3541453913697197  0.0212317480543049  0.9944201428741337   T   T   T
  0.3956715922391751  0.9788657540697088  0.9957285272549825   T   T   T
  0.4789259591760171  0.0212338230220794  0.9964155558843615   T   T   T
  0.5204878617934767  0.9788130611602952  0.9964375227026991   T   T   T
  0.6037390571420289  0.0211730535519621  0.9957639354775480   T   T   T
  0.6452581190249163  0.9788420637390089  0.9943594433378848   T   T   T
  0.7287061686692411  0.0209762447103330  0.9927614041774007   T   T   T
  0.7701029659132530  0.9786931450396565  0.9905685306390950   T   T   T
  0.8536558735188038  0.0208413795511078  0.9896255229069340   T   T   T
  0.8953328601948414  0.9792220651763373  0.9882973541293723   T   T   T
  0.9787610779894678  0.0208932932098449  0.9882543453772001   T   T   T
  0.0203726107035322  0.1042598685965928  0.9891006296255327   T   T   T
  0.1040110704064574  0.1459776770196584  0.9891355840796265   T   T   T
  0.1456588568073656  0.1044434876636373  0.9887478763024760   T   T   T
  0.2289553601429688  0.1464379623028051  0.9891099509679862   T   T   T
  0.2706086632083569  0.1048359870528373  0.9903361342222325   T   T   T
  0.3545375307456169  0.1475580450399931  0.9925653219366311   T   T   T
  0.3953184226206261  0.1046360823586170  0.9946440687148126   T   T   T
  0.4784345415883280  0.1474893938733146  0.9962630441639959   T   T   T
  0.5201952457239045  0.1050966145225516  0.9966719640567874   T   T   T
  0.6033227891443005  0.1474298819698774  0.9969106316030292   T   T   T
  0.6450544784357319  0.1049894233614026  0.9960584545877609   T   T   T
  0.7282621036178298  0.1466183491551902  0.9953183186279873   T   T   T
  0.7700437400713511  0.1043885444178798  0.9935559609421389   T   T   T
  0.8535317916331948  0.1461169701927219  0.9927403604289751   T   T   T
  0.8952615555100039  0.1043720240923349  0.9908451902329247   T   T   T
  0.9787881251813388  0.1459774132965208  0.9904952062907881   T   T   T
  0.0209139492816632  0.2295178522202548  0.9920957651315163   T   T   T
  0.1043795251175865  0.2708541624978551  0.9921831144468598   T   T   T
  0.1459371806449212  0.2291843870677184  0.9904868535384281   T   T   T
  0.2292249237002153  0.2705962324253264  0.9905256510296141   T   T   T
  0.2704604672090198  0.2298154310225087  0.9892260077954731   T   T   T
  0.3952809560238464  0.2301358172105736  0.9926708312141415   T   T   T
  0.5189353856412708  0.2303974602486818  0.9970524886981806   T   T   T
  0.6016509393911420  0.2739631785648911  0.9980591214106980   T   T   T
  0.6439751184872478  0.2311155679923971  0.9975138070991036   T   T   T
  0.7273527882578179  0.2723172694236098  0.9972561682470484   T   T   T
  0.7694899041755932  0.2301648440220134  0.9960804721465877   T   T   T
  0.8530812122604345  0.2714095489505084  0.9955373971059274   T   T   T
  0.8951959701027050  0.2295647918079737  0.9939904150620862   T   T   T
  0.9787029231694078  0.2709497483170864  0.9937281568770757   T   T   T
  0.0208179923858793  0.3543619746020497  0.9950503304927665   T   T   T
  0.1043329426440636  0.3954808125872162  0.9952487300126478   T   T   T
  0.1468757814000412  0.3545710945732949  0.9942019940341424   T   T   T
  0.2298366701443939  0.3955326888276645  0.9953460269673542   T   T   T
  0.3519412628135044  0.3928345867767575  0.0025504136333510   T   T   T
  0.3938748474702223  0.3535564111357274  0.9955786722230897   T   T   T
  0.5161171834297633  0.3567105325154003  0.9975531312645245   T   T   T
  0.6427750939775549  0.3570084197153918  0.9986521869789584   T   T   T
  0.7259184384157535  0.3980950438145001  0.9980820505343999   T   T   T
  0.7686381279972920  0.3557655662693833  0.9976132206185468   T   T   T
  0.8523658943300561  0.3964126016956158  0.9970177794692674   T   T   T
  0.8947613048572620  0.3546295190136064  0.9962698558146030   T   T   T
  0.9785815537907112  0.3959379396680660  0.9960034562979700   T   T   T
  0.0210332769255857  0.4792159507013096  0.9964356303650277   T   T   T
  0.1049545896404780  0.5204549317061691  0.9966292720444514   T   T   T
  0.1473854920427726  0.4786765412300795  0.9963698029422261   T   T   T
  0.2303130768138004  0.5190666449086194  0.9971740692316686   T   T   T
  0.3563780627412427  0.5167655625361576  0.0047584512782350   T   T   T
  0.6435217624330534  0.4836555508297025  0.0002865594891404   T   T   T
  0.7695103089277850  0.4808001494238567  0.9969676959869957   T   T   T
  0.8523668531680642  0.5213122475631238  0.9962421077357959   T   T   T
  0.8947212147488202  0.4795133877540678  0.9966957109546755   T   T   T
  0.9786579795189283  0.5207944256916335  0.9963806816494554   T   T   T
  0.0209865515868444  0.6040577474534956  0.9956597865135777   T   T   T
  0.1048063423158965  0.6453651993398637  0.9959136903665424   T   T   T
  0.1472461638599185  0.6035676732001676  0.9968343614461403   T   T   T
  0.2309765683961587  0.6441707842505195  0.9975849671204600   T   T   T
  0.2738273139505196  0.6019024816504128  0.9984344418765687   T   T   T
  0.3568527566130726  0.6430969479794442  0.9994342425630904   T   T   T
  0.4830637409624927  0.6433069203737034  0.9937565059228817   T   T   T
  0.6052444618620783  0.6466575194324946  0.9912413177108945   T   T   T
  0.6465046220831354  0.6061932261526763  0.9952005528887611   T   T   T
  0.7697448030551186  0.6045767356526213  0.9929330586019418   T   T   T
  0.8522558055134439  0.6451990908114453  0.9925185055502084   T   T   T
  0.8952354551767101  0.6044694143141456  0.9945817332723621   T   T   T
  0.9785922472072315  0.6456004569193894  0.9943672530829204   T   T   T
  0.0207291583273630  0.7290456302358805  0.9927258246283017   T   T   T
  0.1041697079300832  0.7703946675888531  0.9933181394217598   T   T   T
  0.1464102948023935  0.7285883727701190  0.9951124350749154   T   T   T
  0.2299633679232116  0.7698220778231928  0.9958289795354602   T   T   T
  0.2721552811340544  0.7276603355111320  0.9971365771275700   T   T   T
  0.3555441947111433  0.7689261410937291  0.9974492006779627   T   T   T
  0.3978873341743991  0.7260980871785847  0.9982817678723208   T   T   T
  0.4805907976197048  0.7696956641308432  0.9972497481139513   T   T   T
  0.6041819837273366  0.7699633304670002  0.9924372736313671   T   T   T
  0.7288868146654934  0.7703113729188544  0.9873576374969133   T   T   T
  0.7698930583690924  0.7292456317069522  0.9873853552970573   T   T   T
  0.8533043910836540  0.7707550176243174  0.9880465351867542   T   T   T
  0.8949241217172386  0.7291148185682133  0.9899725371760226   T   T   T
  0.9783538580252298  0.7704023959342408  0.9905819431713709   T   T   T
  0.0205023267172706  0.8540089614623554  0.9894328431192037   T   T   T
  0.1040834621978703  0.8956535925811551  0.9903099557852357   T   T   T
  0.1458566908177161  0.8538917600197351  0.9922183152687936   T   T   T
  0.2293486068638089  0.8956270994811391  0.9933438979128226   T   T   T
  0.2711640614643827  0.8533820927736144  0.9951242819361639   T   T   T
  0.3543627971446526  0.8950380427229163  0.9959585276061276   T   T   T
  0.3961368125849276  0.8526129156008651  0.9968405004871101   T   T   T
  0.4792541509354962  0.8949757861840553  0.9967028151844630   T   T   T
  0.5210182889555526  0.8525927616422848  0.9963075837504363   T   T   T
  0.6041117853995814  0.8954138821128623  0.9945292490058790   T   T   T
  0.6449632909211545  0.8526001282232869  0.9922212555428089   T   T   T
  0.7288325665377542  0.8952738404968628  0.9897815914917274   T   T   T
  0.7703738489137280  0.8536646080094670  0.9879092639177500   T   T   T
  0.8536552142562073  0.8956283975887800  0.9876250681740828   T   T   T
  0.8952398671741264  0.8540067041648101  0.9876425567046780   T   T   T
  0.9789017824310093  0.8957022884198622  0.9881932550584693   T   T   T
  0.3536812890092023  0.2703955277022558  0.9885597172947556   T   T   T
  0.4775065100536580  0.2728978735380636  0.9965022775441383   T   T   T
  0.2698288268213389  0.3539534418387547  0.9931504781073741   T   T   T
  0.4739325210721290  0.3925918009129674  0.9982060022699955   T   T   T
  0.6001232586238316  0.3999688458495996  0.9986795716552024   T   T   T
  0.2727567562607831  0.4774324644422236  0.9969591060328113   T   T   T
  0.3889520506691184  0.4718457732045991  0.0205690931247631   T   T   T
  0.6090456383630993  0.5273849469792680  0.0073367068216683   T   T   T
  0.7268072643007315  0.5221240433043661  0.9960010477615384   T   T   T
  0.3996146096055071  0.6002304420287388  0.0004189336290850   T   T   T
  0.5247110205747560  0.6071914347816545  0.9931175033242923   T   T   T
  0.7294981617918310  0.6461838626967094  0.9880019434793752   T   T   T
  0.5220507549232636  0.7273269186085116  0.9965444592477297   T   T   T
  0.6454489198061353  0.7296733436148628  0.9876455323654980   T   T   T
  0.4949430107543620  0.5000696599879930  0.0552895652067065   T   T   T
 
  0.00000000E+00  0.00000000E+00  0.00000000E+00
  0.00000000E+00  0.00000000E+00  0.00000000E+00
  0.00000000E+00  0.00000000E+00  0.00000000E+00
  0.00000000E+00  0.00000000E+00  0.00000000E+00
  0.00000000E+00  0.00000000E+00  0.00000000E+00
  0.00000000E+00  0.00000000E+00  0.00000000E+00
  0.00000000E+00  0.00000000E+00  0.00000000E+00
  0.00000000E+00  0.00000000E+00  0.00000000E+00
  0.00000000E+00  0.00000000E+00  0.00000000E+00
  0.00000000E+00  0.00000000E+00  0.00000000E+00
  0.00000000E+00  0.00000000E+00  0.00000000E+00
  0.00000000E+00  0.00000000E+00  0.00000000E+00
  0.00000000E+00  0.00000000E+00  0.00000000E+00
  0.00000000E+00  0.00000000E+00  0.00000000E+00
  0.00000000E+00  0.00000000E+00  0.00000000E+00
  0.00000000E+00  0.00000000E+00  0.00000000E+00
  0.00000000E+00  0.00000000E+00  0.00000000E+00
  0.00000000E+00  0.00000000E+00  0.00000000E+00
  0.00000000E+00  0.00000000E+00  0.00000000E+00
  0.00000000E+00  0.00000000E+00  0.00000000E+00
  0.00000000E+00  0.00000000E+00  0.00000000E+00
  0.00000000E+00  0.00000000E+00  0.00000000E+00
  0.00000000E+00  0.00000000E+00  0.00000000E+00
  0.00000000E+00  0.00000000E+00  0.00000000E+00
  0.00000000E+00  0.00000000E+00  0.00000000E+00
  0.00000000E+00  0.00000000E+00  0.00000000E+00
  0.00000000E+00  0.00000000E+00  0.00000000E+00
  0.00000000E+00  0.00000000E+00  0.00000000E+00
  0.00000000E+00  0.00000000E+00  0.00000000E+00
  0.00000000E+00  0.00000000E+00  0.00000000E+00
  0.00000000E+00  0.00000000E+00  0.00000000E+00
  0.00000000E+00  0.00000000E+00  0.00000000E+00
  0.00000000E+00  0.00000000E+00  0.00000000E+00
  0.00000000E+00  0.00000000E+00  0.00000000E+00
  0.00000000E+00  0.00000000E+00  0.00000000E+00
  0.00000000E+00  0.00000000E+00  0.00000000E+00
  0.00000000E+00  0.00000000E+00  0.00000000E+00
  0.00000000E+00  0.00000000E+00  0.00000000E+00
  0.00000000E+00  0.00000000E+00  0.00000000E+00
  0.00000000E+00  0.00000000E+00  0.00000000E+00
  0.00000000E+00  0.00000000E+00  0.00000000E+00
  0.00000000E+00  0.00000000E+00  0.00000000E+00
  0.00000000E+00  0.00000000E+00  0.00000000E+00
  0.00000000E+00  0.00000000E+00  0.00000000E+00
  0.00000000E+00  0.00000000E+00  0.00000000E+00
  0.00000000E+00  0.00000000E+00  0.00000000E+00
  0.00000000E+00  0.00000000E+00  0.00000000E+00
  0.00000000E+00  0.00000000E+00  0.00000000E+00
  0.00000000E+00  0.00000000E+00  0.00000000E+00
  0.00000000E+00  0.00000000E+00  0.00000000E+00
  0.00000000E+00  0.00000000E+00  0.00000000E+00
  0.00000000E+00  0.00000000E+00  0.00000000E+00
  0.00000000E+00  0.00000000E+00  0.00000000E+00
  0.00000000E+00  0.00000000E+00  0.00000000E+00
  0.00000000E+00  0.00000000E+00  0.00000000E+00
  0.00000000E+00  0.00000000E+00  0.00000000E+00
  0.00000000E+00  0.00000000E+00  0.00000000E+00
  0.00000000E+00  0.00000000E+00  0.00000000E+00
  0.00000000E+00  0.00000000E+00  0.00000000E+00
  0.00000000E+00  0.00000000E+00  0.00000000E+00
  0.00000000E+00  0.00000000E+00  0.00000000E+00
  0.00000000E+00  0.00000000E+00  0.00000000E+00
  0.00000000E+00  0.00000000E+00  0.00000000E+00
  0.00000000E+00  0.00000000E+00  0.00000000E+00
  0.00000000E+00  0.00000000E+00  0.00000000E+00
  0.00000000E+00  0.00000000E+00  0.00000000E+00
  0.00000000E+00  0.00000000E+00  0.00000000E+00
  0.00000000E+00  0.00000000E+00  0.00000000E+00
  0.00000000E+00  0.00000000E+00  0.00000000E+00
  0.00000000E+00  0.00000000E+00  0.00000000E+00
  0.00000000E+00  0.00000000E+00  0.00000000E+00
  0.00000000E+00  0.00000000E+00  0.00000000E+00
  0.00000000E+00  0.00000000E+00  0.00000000E+00
  0.00000000E+00  0.00000000E+00  0.00000000E+00
  0.00000000E+00  0.00000000E+00  0.00000000E+00
  0.00000000E+00  0.00000000E+00  0.00000000E+00
  0.00000000E+00  0.00000000E+00  0.00000000E+00
  0.00000000E+00  0.00000000E+00  0.00000000E+00
  0.00000000E+00  0.00000000E+00  0.00000000E+00
  0.00000000E+00  0.00000000E+00  0.00000000E+00
  0.00000000E+00  0.00000000E+00  0.00000000E+00
  0.00000000E+00  0.00000000E+00  0.00000000E+00
  0.00000000E+00  0.00000000E+00  0.00000000E+00
  0.00000000E+00  0.00000000E+00  0.00000000E+00
  0.00000000E+00  0.00000000E+00  0.00000000E+00
  0.00000000E+00  0.00000000E+00  0.00000000E+00
  0.00000000E+00  0.00000000E+00  0.00000000E+00
  0.00000000E+00  0.00000000E+00  0.00000000E+00
  0.00000000E+00  0.00000000E+00  0.00000000E+00
  0.00000000E+00  0.00000000E+00  0.00000000E+00
  0.00000000E+00  0.00000000E+00  0.00000000E+00
  0.00000000E+00  0.00000000E+00  0.00000000E+00
  0.00000000E+00  0.00000000E+00  0.00000000E+00
  0.00000000E+00  0.00000000E+00  0.00000000E+00
  0.00000000E+00  0.00000000E+00  0.00000000E+00
  0.00000000E+00  0.00000000E+00  0.00000000E+00
  0.00000000E+00  0.00000000E+00  0.00000000E+00
  0.00000000E+00  0.00000000E+00  0.00000000E+00
  0.00000000E+00  0.00000000E+00  0.00000000E+00
  0.00000000E+00  0.00000000E+00  0.00000000E+00
  0.00000000E+00  0.00000000E+00  0.00000000E+00
  0.00000000E+00  0.00000000E+00  0.00000000E+00
  0.00000000E+00  0.00000000E+00  0.00000000E+00
  0.00000000E+00  0.00000000E+00  0.00000000E+00
  0.00000000E+00  0.00000000E+00  0.00000000E+00
  0.00000000E+00  0.00000000E+00  0.00000000E+00
  0.00000000E+00  0.00000000E+00  0.00000000E+00
  0.00000000E+00  0.00000000E+00  0.00000000E+00
  0.00000000E+00  0.00000000E+00  0.00000000E+00
  0.00000000E+00  0.00000000E+00  0.00000000E+00
  0.00000000E+00  0.00000000E+00  0.00000000E+00
  0.00000000E+00  0.00000000E+00  0.00000000E+00
  0.00000000E+00  0.00000000E+00  0.00000000E+00
  0.00000000E+00  0.00000000E+00  0.00000000E+00
  0.00000000E+00  0.00000000E+00  0.00000000E+00
  0.00000000E+00  0.00000000E+00  0.00000000E+00
  0.00000000E+00  0.00000000E+00  0.00000000E+00
  0.00000000E+00  0.00000000E+00  0.00000000E+00
  0.00000000E+00  0.00000000E+00  0.00000000E+00
  0.00000000E+00  0.00000000E+00  0.00000000E+00
  0.00000000E+00  0.00000000E+00  0.00000000E+00
  0.00000000E+00  0.00000000E+00  0.00000000E+00
  0.00000000E+00  0.00000000E+00  0.00000000E+00
  0.00000000E+00  0.00000000E+00  0.00000000E+00
  0.00000000E+00  0.00000000E+00  0.00000000E+00
  0.00000000E+00  0.00000000E+00  0.00000000E+00
  0.00000000E+00  0.00000000E+00  0.00000000E+00
  0.00000000E+00  0.00000000E+00  0.00000000E+00
  0.00000000E+00  0.00000000E+00  0.00000000E+00
  0.00000000E+00  0.00000000E+00  0.00000000E+00
  0.00000000E+00  0.00000000E+00  0.00000000E+00
  0.00000000E+00  0.00000000E+00  0.00000000E+00
  0.00000000E+00  0.00000000E+00  0.00000000E+00
  0.00000000E+00  0.00000000E+00  0.00000000E+00
  0.00000000E+00  0.00000000E+00  0.00000000E+00
  0.00000000E+00  0.00000000E+00  0.00000000E+00
  0.00000000E+00  0.00000000E+00  0.00000000E+00
  0.00000000E+00  0.00000000E+00  0.00000000E+00
