H    C    N    Ru
   1.00000000000000     
    17.0990250000000010   -9.8721270000000008    0.0000000000000000
     0.0000000000000000   19.7442530000000005    0.0000000000000000
     0.0000000000000000    0.0000000000000000   20.0000000000000000
H    C    N    Ru
8  116  13  1  
Selective dynamics
Direct
  0.3922308179515043  0.3795675092294379  0.1377116042230875 T T T
  0.4142418420905810  0.4731262267805417  0.1686790725042449 T T T
  0.4417425984074599  0.4139068860942299  0.2153669572685369 T T T
  0.5145338956901992  0.5792318746609257  0.0715813217492976 T T T
  0.5355039873954301  0.4270867844124625  0.1234983576696132 T T T
  0.5868709678931534  0.5227257399473956  0.2175029675434827 T T T
  0.5600891367414949  0.5851436818307088  0.1756609052806939 T T T
  0.6350614673974533  0.5696743525795426  0.1421914400231191 T T T
  0.4364939628038319  0.4320609034114216  0.1641355989590381 T T T
  0.5157847986923404  0.4702451166376374  0.1290623295937075 T T T
  0.5779324154325022  0.5410132335942414  0.1675408725763754 T T T
  0.0214189104161152  0.9789804174399908  0.9920995250834038 T T T
  0.1046028352901056  0.0202603236385324  0.9924673810016644 T T T
  0.1464069277343274  0.9787673014610360  0.9937619627808074 T T T
  0.2298365196562102  0.0207201375630270  0.9940632295850940 T T T
  0.2713254339375634  0.9784876003903948  0.9953650738704856 T T T
  0.3547255439255037  0.0205341678364325  0.9954648038419428 T T T
  0.3963015630516654  0.9783560290706040  0.9955348777858756 T T T
  0.4794941353423284  0.0207192532159525  0.9951024721885408 T T T
  0.5210614941588864  0.9783842454935856  0.9941349984543396 T T T
  0.6043438253527303  0.0209693463622029  0.9937001911762940 T T T
  0.6459821519565452  0.9787763269745428  0.9923658449202916 T T T
  0.7293344341316932  0.0208686645493702  0.9924159130096064 T T T
  0.7709385664014196  0.9790302248056616  0.9913436012448392 T T T
  0.8543303820069850  0.0208818267142217  0.9914939375747804 T T T
  0.8964691312958106  0.9795721639009216  0.9910728189431274 T T T
  0.9795359770809832  0.0207720060627180  0.9914450484355448 T T T
  0.0206870785449143  0.1039095766551419  0.9916299618234058 T T T
  0.1040289859003713  0.1451747981852958  0.9914119699783748 T T T
  0.1458062890581664  0.1036110071009031  0.9916563866908000 T T T
  0.2287610457519537  0.1451209875965963  0.9916727499126312 T T T
  0.2708086516040748  0.1039534405341089  0.9929912510637938 T T T
  0.3547512626608044  0.1464027281209979  0.9941474259737448 T T T
  0.3957418160277660  0.1038444521912686  0.9953273159247366 T T T
  0.4788443508250052  0.1467807856341875  0.9959934574955092 T T T
  0.5206441384270079  0.1045633195169905  0.9957148876916996 T T T
  0.6037435251704457  0.1471444718528362  0.9960906735232646 T T T
  0.6455208984792429  0.1047104694146058  0.9950324476554848 T T T
  0.7286745147181588  0.1464531673684671  0.9953373313028132 T T T
  0.7705964178332133  0.1044842109833332  0.9939435828110484 T T T
  0.8538525816714776  0.1459508807818634  0.9940436129897682 T T T
  0.8956443118354596  0.1042273404675249  0.9926185512205138 T T T
  0.9790437966748932  0.1456027278460912  0.9924806804532064 T T T
  0.0208965905776456  0.2290200099505945  0.9936929961340653 T T T
  0.1041102774965344  0.2700081234343482  0.9932689649443924 T T T
  0.1453964635439963  0.2280836423364584  0.9916928965822530 T T T
  0.2285186873813683  0.2691622362482132  0.9911340322650922 T T T
  0.2697466102920896  0.2282428866760994  0.9908429211797036 T T T
  0.3952378089550913  0.2288558212553546  0.9940125154026312 T T T
  0.5192624681278567  0.2296138167879577  0.9968851171861196 T T T
  0.6018775446677788  0.2736064821457068  0.9981917988554108 T T T
  0.6442272306397453  0.2307491810223742  0.9974816010486816 T T T
  0.7277024216499177  0.2722009697482500  0.9979378666561144 T T T
  0.7698465777788223  0.2300640292061124  0.9968715718128220 T T T
  0.8533022727222358  0.2712027446788379  0.9970034370778560 T T T
  0.8955294444454840  0.2294445295065940  0.9956015009165490 T T T
  0.9787316610074248  0.2705494218459031  0.9954834711802084 T T T
  0.0208480527808085  0.3539925992974416  0.9968808853301150 T T T
  0.1040415430302168  0.3949938700262865  0.9968630475398100 T T T
  0.1464943867733798  0.3538563129187240  0.9951949681747142 T T T
  0.2288701540504243  0.3942373285167458  0.9953932570371908 T T T
  0.3500296805007703  0.3906307957915873  0.9992747125944677 T T T
  0.3913825232867854  0.3501153322154228  0.9965709794180374 T T T
  0.5170649765649894  0.3552996104471176  0.9988716805924278 T T T
  0.6432865194979641  0.3565698419243035  0.9996223096218564 T T T
  0.7262684869151211  0.3980429526421337  0.9994533521148750 T T T
  0.7689943741809149  0.3556135666197714  0.9988589907991058 T T T
  0.8526843075084268  0.3961521830994071  0.9986836392083150 T T T
  0.8949410666091975  0.3544080651284826  0.9980167556286396 T T T
  0.9787155631021008  0.3956321613511997  0.9979450990139804 T T T
  0.0212860996759016  0.4788275203479245  0.9984538752567184 T T T
  0.1050522828938902  0.5200008262327976  0.9984377774268608 T T T
  0.1471153915263427  0.4781247216816348  0.9979682142754585 T T T
  0.2298986531947259  0.5185517560350542  0.9983735575949004 T T T
  0.3553107043771784  0.5158771010338508  0.0038880348816499 T T T
  0.6450425279630972  0.4829401508327567  0.0046036297756849 T T T
  0.7704498932411368  0.4808179148899331  0.9988995275462836 T T T
  0.8533817558960456  0.5212656849310380  0.9985786031047346 T T T
  0.8953969717550404  0.4793667072618903  0.9987591009110972 T T T
  0.9791324543121298  0.5205191872576644  0.9986526596359048 T T T
  0.0217399067991966  0.6037626114344553  0.9984693890356108 T T T
  0.1055043572467537  0.6450575464476731  0.9984391856768546 T T T
  0.1476530360908726  0.6031626314034629  0.9986181473906568 T T T
  0.2311745048233266  0.6437084843176414  0.9986750461624364 T T T
  0.2737643037034232  0.6012081930732782  0.9991607189629472 T T T
  0.3566025290167087  0.6425250253422070  0.9994627755066272 T T T
  0.4831633159039659  0.6439396850826506  0.0005589551914304 T T T
  0.6513583945390353  0.6079099434812804  0.0007608563467136 T T T
  0.7717740907591212  0.6047342860824414  0.9969051621413570 T T T
  0.8542173690067518  0.6456157851372005  0.9966944273642449 T T T
  0.8964989844181798  0.6043145807613393  0.9979071072405716 T T T
  0.9797950848531720  0.6454295776349662  0.9979262863085370 T T T
  0.0219832323260934  0.7288789596807836  0.9970983877850024 T T T
  0.1051561724492651  0.7701013892324194  0.9972460823312892 T T T
  0.1471843813953279  0.7281589770297366  0.9979861706974248 T T T
  0.2306757491785404  0.7693988889793595  0.9977000462292208 T T T
  0.2726095503929748  0.7271907195902472  0.9979943566705988 T T T
  0.3560197998032880  0.7684973236629945  0.9968198714526302 T T T
  0.3981207867375827  0.7256649372054579  0.9968660426121114 T T T
  0.4807826292903148  0.7693844952900041  0.9936576111324488 T T T
  0.6049565350712560  0.7690134984376946  0.9918552587190056 T T T
  0.7315053298331692  0.7715402863005746  0.9914137921655708 T T T
  0.7735691937406035  0.7308714782912850  0.9926779886449968 T T T
  0.8557134926378211  0.7713702821915532  0.9931217435444648 T T T
  0.8969774489346757  0.7293685290495132  0.9951154219528848 T T T
  0.9799412529939104  0.7704458348666062  0.9956486890102836 T T T
  0.0217884458508689  0.8539657914283930  0.9944772200978648 T T T
  0.1050519520963818  0.8953016417575239  0.9949435106467854 T T T
  0.1467761379809839  0.8535567485035169  0.9962930059862900 T T T
  0.2301357896193066  0.8951903653197473  0.9963076918351176 T T T
  0.2719561766671419  0.8529875570736475  0.9968454179437546 T T T
  0.3550063949874855  0.8945462913232004  0.9960041389378042 T T T
  0.3967345213849597  0.8521642024419633  0.9955513927050962 T T T
  0.4798595798735432  0.8945489484347754  0.9940077565568024 T T T
  0.5214399328269336  0.8521160038134261  0.9927442093128940 T T T
  0.6050859211955552  0.8952854417724916  0.9915420826618104 T T T
  0.6461475333654920  0.8532518861391384  0.9908541023743014 T T T
  0.7296324439292432  0.8953015259483900  0.9906434261652112 T T T
  0.7725076798998962  0.8547785746840894  0.9905599138078384 T T T
  0.8553735825967040  0.8963358984949266  0.9909127372927298 T T T
  0.8969916338731478  0.8546292412720088  0.9920643833189372 T T T
  0.9802250986780804  0.8958153815732084  0.9928229087096414 T T T
  0.6488157190396822  0.7313330045045163  0.9927681171669293 T T T
  0.5296722205382669  0.6087832633071227  0.0122069050619389 T T T
  0.3526928655149915  0.2679111887501688  0.9902195556283582 T T T
  0.4776078177716762  0.2718899993671369  0.9965827306437004 T T T
  0.2679764735625179  0.3520184585866437  0.9918345595784376 T T T
  0.4712755794391023  0.3889869167360293  0.0025175351285830 T T T
  0.5998543401201540  0.3999651425905283  0.0008595978569721 T T T
  0.2720248135010348  0.4766261952559400  0.9975464070991285 T T T
  0.3881955360859013  0.4701140074980880  0.0119834567052694 T T T
  0.6121958362395720  0.5300259457615526  0.0099385630595131 T T T
  0.7286664169800017  0.5226578663680764  0.9985715710868220 T T T
  0.3993802726551206  0.5989876935434204  0.0020131606331663 T T T
  0.6113186549607861  0.6492369229312109  0.9992914377838208 T T T
  0.7326121662796162  0.6478328356505300  0.9943767755173696 T T T
  0.5215870207459222  0.7270915567191337  0.9922976894087456 T T T
  0.5000888052641451  0.4985383879762228  0.0285819843598398 T T T
