 H  C  N Ru                             
   1.00000000000000     
    17.0990259999999985   -9.8721239999999995    0.0000000000000000
     0.0000000000000000   19.7442530000000005    0.0000000000000000
     0.0000000000000000    0.0000000000000000   20.0000000000000000
   H    C    N    Ru
     6   115    14     1
Direct
  0.3973905281330879  0.3926751069307999  0.1578591761430233
  0.5778692144197758  0.5334797478915568  0.1115047794474656
  0.3982823775322933  0.5339989574621744  0.1369209539265617
  0.5510753150649005  0.5788620167120531  0.2148428787341975
  0.4699532296816928  0.5869843364374387  0.2448489584701287
  0.5292361814312744  0.6481580850419988  0.1788642206861785
  0.4390758347570649  0.4518641368643532  0.1402231027852829
  0.4500281439065525  0.5281321607913113  0.1487134374158535
  0.5032317290460180  0.5886687415123024  0.1998435691868470
  0.0210209873724082  0.9787688890626024  0.9927880169298681
  0.1044499979964648  0.0204448898386019  0.9933221572491681
  0.1460996807920482  0.9788172825988709  0.9944962608626383
  0.2296683400565229  0.0209710677492837  0.9957688819806868
  0.2710274669561011  0.9786290106131496  0.9973537792277504
  0.3545237224117860  0.0207827635219651  0.9986005487409068
  0.3960643872123802  0.9784365466029388  0.9992479320938834
  0.4793196331870422  0.0207503814068614  0.9995458231848199
  0.5209120378302942  0.9783514658967083  0.9993840303912486
  0.6041589094492739  0.0207183429750698  0.9989967016032020
  0.6457120286714948  0.9783896867096942  0.9980792596180815
  0.7292029595241102  0.0205854879909617  0.9969506923017106
  0.7705778381281568  0.9782792404552411  0.9952115218266214
  0.8541648842839038  0.0204483329098355  0.9942022323994677
  0.8958649321038809  0.9788688972211872  0.9929677532540671
  0.9792663435743991  0.0205295657219383  0.9928249506512227
  0.0209831720205610  0.1039608557283038  0.9932107152509324
  0.1045965230158869  0.1456318954882443  0.9929061242400838
  0.1461869626720572  0.1040738941995002  0.9930782365651625
  0.2295062544445853  0.1460627465013797  0.9937125210206865
  0.2710169270214466  0.1044120111190583  0.9954736913071189
  0.3549013548466013  0.1470824833693297  0.9974741190380093
  0.3957345315556134  0.1041738295693871  0.9988291885119320
  0.4788780426268443  0.1469410569544033  0.9996947582439458
  0.5206201381712232  0.1045651687126391  0.9997954800006570
  0.6037610171100152  0.1469755477414530  0.9999085217927614
  0.6455341080503268  0.1045416063869048  0.9992546152849705
  0.7287206398426452  0.1461964092158771  0.9986760129773140
  0.7705798135768995  0.1040086215402394  0.9974006091177881
  0.8540685130645507  0.1457513948156665  0.9965153560686923
  0.8958236417254682  0.1040159786691040  0.9949586230232390
  0.9794007241224252  0.1456657902046465  0.9942392044329633
  0.0215813947765458  0.2292551306521104  0.9950804761874796
  0.1049975971671081  0.2705394210018637  0.9943805525983942
  0.1466009697113481  0.2289503426887030  0.9929933430308453
  0.2299623852376185  0.2703399695048427  0.9924278487416640
  0.2709980340941819  0.2294149605455428  0.9930654898049508
  0.3957559285973180  0.2296744150233295  0.9979282660318662
  0.5194096190188834  0.2298367181000263  0.0001873079198888
  0.6020834844052260  0.2735196213535581  0.0006268852475045
  0.6443860075781759  0.2306560708488930  0.0002962597473673
  0.7278138595109961  0.2719362410623145  0.9999676897611596
  0.7699911443438805  0.2297768735247639  0.9991213897115430
  0.8535528413282440  0.2710748284530043  0.9986603075204861
  0.8958379111386103  0.2292712933605652  0.9973431218970663
  0.9791993691468485  0.2706079588187334  0.9968392295982526
  0.0213998914532804  0.3541176516972581  0.9981614488571604
  0.1047026546781029  0.3952973007996415  0.9981792227480474
  0.1477548308830902  0.3544878626692076  0.9962503753596830
  0.2301568333327516  0.3950816459363773  0.9961490730934960
  0.3535773750750641  0.3940158798217064  0.9971588658004309
  0.3945352104007670  0.3531546554212569  0.0005122564005261
  0.5165262962900541  0.3561749083580458  0.0026273615296380
  0.6431820291106083  0.3566057022136349  0.0007341325100344
  0.7262366187243325  0.3977045396670510  0.0003583904839140
  0.7690663006346248  0.3553449943954251  0.0001242726856976
  0.8527174863466155  0.3960075543023218  0.9998204411088311
  0.8951680932340730  0.3542413696370239  0.9992970641259813
  0.9789765635323571  0.3956226502010586  0.9991751711909730
  0.0212256110106677  0.4788275017298519  0.9996121227855043
  0.1050577439740290  0.5201320304797893  0.9997021712656832
  0.1474550341451523  0.4784005817089780  0.9993215771124827
  0.2303334321466889  0.5190412545636199  0.9996313607216095
  0.3565979853456208  0.5162100652035875  0.0000159429412540
  0.6429578133249358  0.4829707283662276  0.9966237778421823
  0.7695807141187215  0.4802623015095416  0.9997180018214610
  0.8525159899509372  0.5208431255503633  0.9991649631630655
  0.8949543994302395  0.4791118377002374  0.9996290980600306
  0.9788019859167828  0.5204164374817173  0.9995294343192492
  0.0211048988792262  0.6036243143708049  0.9989877473855449
  0.1049367223391229  0.6450052695725980  0.9991876118396886
  0.1473775989696876  0.6032435474938702  0.9997967201540897
  0.2310536999772155  0.6439117481606984  0.0000729289158899
  0.2738812254138090  0.6015699149716445  0.0002456031863658
  0.3569785334817152  0.6426543968296190  0.0004040652785334
  0.4837696489582433  0.6428081755691174 -0.0002415419134502
  0.6063517377881433  0.6464006484068980  0.9968846421450118
  0.6465988104144821  0.6051075382218141  0.9923150624046212
  0.7698943532915519  0.6040654710949432  0.9950149428838879
  0.8523882913806222  0.6447662825062364  0.9953669551784623
  0.8953612734753394  0.6039526497902004  0.9977455421812467
  0.9787112966029696  0.6451389067175765  0.9977758854505901
  0.0209603420068462  0.7286538899610099  0.9964011487972791
  0.1043514977987118  0.7699955283039688  0.9971607173386761
  0.1466079185816716  0.7281766095215494  0.9985677304497474
  0.2301886670950746  0.7694461958835158  0.9990752631332727
  0.2723720080836899  0.7272983065026095  0.9998348008521271
  0.3558397038056913  0.7685367039750860  0.9999431734774415
  0.3981659922384303  0.7256794902269246  0.0000674261909015
  0.4808878605685937  0.7692155996514253  0.9992976376414870
  0.6045951722359092  0.7695256814651322  0.9966578448444023
  0.7294682200697538  0.7699666528752538  0.9914071385579901
  0.7703472484650570  0.7289140877558115  0.9907776920428278
  0.8536533957458983  0.7703134331549678  0.9917571455863893
  0.8952031170748341  0.7286924877350990  0.9933537209428800
  0.9786257575222425  0.7700083437530412  0.9943748471229066
  0.0208458365641031  0.8536014561212296  0.9937777002360562
  0.1044050708970044  0.8952368357960344  0.9948929519902509
  0.1461396596218532  0.8534994668942212  0.9964723697731864
  0.2296486077089287  0.8952222824602701  0.9975400197303683
  0.2714934485578455  0.8530160773559815  0.9987098457208196
  0.3546884843120341  0.8946199752715802  0.9992711779588139
  0.3964813300578459  0.8521920551347009  0.9996367021862191
  0.4796248420463333  0.8945236535103224  0.9994106578525318
  0.5213841528290223  0.8521262229809513  0.9989909309233106
  0.6045340028995491  0.8950000601381143  0.9980567694715999
  0.6453953229670533  0.8521531714500886  0.9965088892797130
  0.7292521335583322  0.8948404115503529  0.9945351783860816
  0.7708676316439768  0.8532716644378572  0.9925528524552403
  0.8541524695387503  0.8952394405002005  0.9922696772092438
  0.8956879439647395  0.8536536777925903  0.9920360712925977
  0.9793041998114896  0.8953427886667316  0.9927263571562749
  0.3544694781200459  0.2701871812322659  0.9942685107185316
  0.4779659975930677  0.2721510201816029  0.0001742847623239
  0.2705793063130850  0.3536687466049340  0.9919760185162989
  0.4743943862883338  0.3913694574106054  0.0097979257677250
  0.6004666949692895  0.3995574783016128  0.9997422524785281
  0.2729389878337050  0.4776140394353949  0.9991576209125319
  0.3921927430519759  0.4740419305190240  0.0008385316112076
  0.6068495374723566  0.5246377559133385  0.9933749000209207
  0.7269414749437692  0.5217371673953489  0.9991648504137208
  0.3997211844132345  0.5996407240705816  0.9996804959471922
  0.5265296892904059  0.6077277531678559  0.0065989574365653
  0.7296080956852732  0.6454328681051392  0.9900115750151808
  0.5223841826836689  0.7267970114084495  0.9987106074840906
  0.6461018959917638  0.7292554525510756  0.9922146330140026
  0.5003211999968690  0.5021171004228907  0.0653088937686016
 
  0.00000000E+00  0.00000000E+00  0.00000000E+00
  0.00000000E+00  0.00000000E+00  0.00000000E+00
  0.00000000E+00  0.00000000E+00  0.00000000E+00
  0.00000000E+00  0.00000000E+00  0.00000000E+00
  0.00000000E+00  0.00000000E+00  0.00000000E+00
  0.00000000E+00  0.00000000E+00  0.00000000E+00
  0.00000000E+00  0.00000000E+00  0.00000000E+00
  0.00000000E+00  0.00000000E+00  0.00000000E+00
  0.00000000E+00  0.00000000E+00  0.00000000E+00
  0.00000000E+00  0.00000000E+00  0.00000000E+00
  0.00000000E+00  0.00000000E+00  0.00000000E+00
  0.00000000E+00  0.00000000E+00  0.00000000E+00
  0.00000000E+00  0.00000000E+00  0.00000000E+00
  0.00000000E+00  0.00000000E+00  0.00000000E+00
  0.00000000E+00  0.00000000E+00  0.00000000E+00
  0.00000000E+00  0.00000000E+00  0.00000000E+00
  0.00000000E+00  0.00000000E+00  0.00000000E+00
  0.00000000E+00  0.00000000E+00  0.00000000E+00
  0.00000000E+00  0.00000000E+00  0.00000000E+00
  0.00000000E+00  0.00000000E+00  0.00000000E+00
  0.00000000E+00  0.00000000E+00  0.00000000E+00
  0.00000000E+00  0.00000000E+00  0.00000000E+00
  0.00000000E+00  0.00000000E+00  0.00000000E+00
  0.00000000E+00  0.00000000E+00  0.00000000E+00
  0.00000000E+00  0.00000000E+00  0.00000000E+00
  0.00000000E+00  0.00000000E+00  0.00000000E+00
  0.00000000E+00  0.00000000E+00  0.00000000E+00
  0.00000000E+00  0.00000000E+00  0.00000000E+00
  0.00000000E+00  0.00000000E+00  0.00000000E+00
  0.00000000E+00  0.00000000E+00  0.00000000E+00
  0.00000000E+00  0.00000000E+00  0.00000000E+00
  0.00000000E+00  0.00000000E+00  0.00000000E+00
  0.00000000E+00  0.00000000E+00  0.00000000E+00
  0.00000000E+00  0.00000000E+00  0.00000000E+00
  0.00000000E+00  0.00000000E+00  0.00000000E+00
  0.00000000E+00  0.00000000E+00  0.00000000E+00
  0.00000000E+00  0.00000000E+00  0.00000000E+00
  0.00000000E+00  0.00000000E+00  0.00000000E+00
  0.00000000E+00  0.00000000E+00  0.00000000E+00
  0.00000000E+00  0.00000000E+00  0.00000000E+00
  0.00000000E+00  0.00000000E+00  0.00000000E+00
  0.00000000E+00  0.00000000E+00  0.00000000E+00
  0.00000000E+00  0.00000000E+00  0.00000000E+00
  0.00000000E+00  0.00000000E+00  0.00000000E+00
  0.00000000E+00  0.00000000E+00  0.00000000E+00
  0.00000000E+00  0.00000000E+00  0.00000000E+00
  0.00000000E+00  0.00000000E+00  0.00000000E+00
  0.00000000E+00  0.00000000E+00  0.00000000E+00
  0.00000000E+00  0.00000000E+00  0.00000000E+00
  0.00000000E+00  0.00000000E+00  0.00000000E+00
  0.00000000E+00  0.00000000E+00  0.00000000E+00
  0.00000000E+00  0.00000000E+00  0.00000000E+00
  0.00000000E+00  0.00000000E+00  0.00000000E+00
  0.00000000E+00  0.00000000E+00  0.00000000E+00
  0.00000000E+00  0.00000000E+00  0.00000000E+00
  0.00000000E+00  0.00000000E+00  0.00000000E+00
  0.00000000E+00  0.00000000E+00  0.00000000E+00
  0.00000000E+00  0.00000000E+00  0.00000000E+00
  0.00000000E+00  0.00000000E+00  0.00000000E+00
  0.00000000E+00  0.00000000E+00  0.00000000E+00
  0.00000000E+00  0.00000000E+00  0.00000000E+00
  0.00000000E+00  0.00000000E+00  0.00000000E+00
  0.00000000E+00  0.00000000E+00  0.00000000E+00
  0.00000000E+00  0.00000000E+00  0.00000000E+00
  0.00000000E+00  0.00000000E+00  0.00000000E+00
  0.00000000E+00  0.00000000E+00  0.00000000E+00
  0.00000000E+00  0.00000000E+00  0.00000000E+00
  0.00000000E+00  0.00000000E+00  0.00000000E+00
  0.00000000E+00  0.00000000E+00  0.00000000E+00
  0.00000000E+00  0.00000000E+00  0.00000000E+00
  0.00000000E+00  0.00000000E+00  0.00000000E+00
  0.00000000E+00  0.00000000E+00  0.00000000E+00
  0.00000000E+00  0.00000000E+00  0.00000000E+00
  0.00000000E+00  0.00000000E+00  0.00000000E+00
  0.00000000E+00  0.00000000E+00  0.00000000E+00
  0.00000000E+00  0.00000000E+00  0.00000000E+00
  0.00000000E+00  0.00000000E+00  0.00000000E+00
  0.00000000E+00  0.00000000E+00  0.00000000E+00
  0.00000000E+00  0.00000000E+00  0.00000000E+00
  0.00000000E+00  0.00000000E+00  0.00000000E+00
  0.00000000E+00  0.00000000E+00  0.00000000E+00
  0.00000000E+00  0.00000000E+00  0.00000000E+00
  0.00000000E+00  0.00000000E+00  0.00000000E+00
  0.00000000E+00  0.00000000E+00  0.00000000E+00
  0.00000000E+00  0.00000000E+00  0.00000000E+00
  0.00000000E+00  0.00000000E+00  0.00000000E+00
  0.00000000E+00  0.00000000E+00  0.00000000E+00
  0.00000000E+00  0.00000000E+00  0.00000000E+00
  0.00000000E+00  0.00000000E+00  0.00000000E+00
  0.00000000E+00  0.00000000E+00  0.00000000E+00
  0.00000000E+00  0.00000000E+00  0.00000000E+00
  0.00000000E+00  0.00000000E+00  0.00000000E+00
  0.00000000E+00  0.00000000E+00  0.00000000E+00
  0.00000000E+00  0.00000000E+00  0.00000000E+00
  0.00000000E+00  0.00000000E+00  0.00000000E+00
  0.00000000E+00  0.00000000E+00  0.00000000E+00
  0.00000000E+00  0.00000000E+00  0.00000000E+00
  0.00000000E+00  0.00000000E+00  0.00000000E+00
  0.00000000E+00  0.00000000E+00  0.00000000E+00
  0.00000000E+00  0.00000000E+00  0.00000000E+00
  0.00000000E+00  0.00000000E+00  0.00000000E+00
  0.00000000E+00  0.00000000E+00  0.00000000E+00
  0.00000000E+00  0.00000000E+00  0.00000000E+00
  0.00000000E+00  0.00000000E+00  0.00000000E+00
  0.00000000E+00  0.00000000E+00  0.00000000E+00
  0.00000000E+00  0.00000000E+00  0.00000000E+00
  0.00000000E+00  0.00000000E+00  0.00000000E+00
  0.00000000E+00  0.00000000E+00  0.00000000E+00
  0.00000000E+00  0.00000000E+00  0.00000000E+00
  0.00000000E+00  0.00000000E+00  0.00000000E+00
  0.00000000E+00  0.00000000E+00  0.00000000E+00
  0.00000000E+00  0.00000000E+00  0.00000000E+00
  0.00000000E+00  0.00000000E+00  0.00000000E+00
  0.00000000E+00  0.00000000E+00  0.00000000E+00
  0.00000000E+00  0.00000000E+00  0.00000000E+00
  0.00000000E+00  0.00000000E+00  0.00000000E+00
  0.00000000E+00  0.00000000E+00  0.00000000E+00
  0.00000000E+00  0.00000000E+00  0.00000000E+00
  0.00000000E+00  0.00000000E+00  0.00000000E+00
  0.00000000E+00  0.00000000E+00  0.00000000E+00
  0.00000000E+00  0.00000000E+00  0.00000000E+00
  0.00000000E+00  0.00000000E+00  0.00000000E+00
  0.00000000E+00  0.00000000E+00  0.00000000E+00
  0.00000000E+00  0.00000000E+00  0.00000000E+00
  0.00000000E+00  0.00000000E+00  0.00000000E+00
  0.00000000E+00  0.00000000E+00  0.00000000E+00
  0.00000000E+00  0.00000000E+00  0.00000000E+00
  0.00000000E+00  0.00000000E+00  0.00000000E+00
  0.00000000E+00  0.00000000E+00  0.00000000E+00
  0.00000000E+00  0.00000000E+00  0.00000000E+00
  0.00000000E+00  0.00000000E+00  0.00000000E+00
  0.00000000E+00  0.00000000E+00  0.00000000E+00
  0.00000000E+00  0.00000000E+00  0.00000000E+00
  0.00000000E+00  0.00000000E+00  0.00000000E+00
  0.00000000E+00  0.00000000E+00  0.00000000E+00
  0.00000000E+00  0.00000000E+00  0.00000000E+00
