H    C    N    Ru                       
   1.00000000000000     
    17.0990259999999985   -9.8721239999999995    0.0000000000000000
     0.0000000000000000   19.7442530000000005    0.0000000000000000
     0.0000000000000000    0.0000000000000000   20.0000000000000000
   H    C    N    Ru
     6   115    14     1
Direct
  0.4986954960172654  0.4245473038760251  0.1787097322590406
  0.5985168400277282  0.4699077129822865  0.1449368999497080
  0.4625597135953853  0.5262872493390486  0.1264976116822347
  0.6497982791777118  0.6377776373214242  0.1844438621811974
  0.5661664502089764  0.6122106491696585  0.2341773167973740
  0.5813754867558664  0.6670159796675000  0.1582589420401859
  0.5435218534390565  0.4712541862293761  0.1477115621566927
  0.5480273580329347  0.5458868772711932  0.1435427571615255
  0.5870948736534620  0.6199230211758240  0.1820756167772334
  0.0204314677021247  0.9786867276850457  0.9945564107217703
  0.1038140192055194  0.0202966676104493  0.9947914599817519
  0.1455093762823827  0.9786911469557458  0.9959071942010884
  0.2290833244566171  0.0208395900111185  0.9966160754445377
  0.2704667835013225  0.9785217585344100  0.9982288214661869
  0.3539554405421897  0.0207111405545058  0.9991508593319045
  0.3955213076980860  0.9784121931166007  0.9999780512897170
  0.4787501491652548  0.0208240945347229  0.0002952650005937
  0.5203745182742376  0.9784754832679075  0.0002904882648955
  0.6036214228721233  0.0208583723872471  0.0000293592013711
  0.6451849843910281  0.9785617172897505  0.9991520316162470
  0.7286746801076932  0.0207174830045303  0.9981824880762249
  0.7700603831428182  0.9783980073387027  0.9964297486951228
  0.8536314276157725  0.0205287808574246  0.9957369092628198
  0.8953235851030564  0.9789175326044883  0.9946382195455622
  0.9787073596699678  0.0205234935215516  0.9945140562856497
  0.0203699393908482  0.1039362546237226  0.9946487669795422
  0.1039802947911874  0.1455642763939662  0.9939448946923197
  0.1454899747883640  0.1039237350232646  0.9940611573597579
  0.2287562143058663  0.1458336804308291  0.9940134634676576
  0.2703623936601239  0.1042475540853529  0.9957365194768509
  0.3542276069756085  0.1469241948641866  0.9973781653030156
  0.3950989199364526  0.1040717176076352  0.9990184740785237
  0.4782330059224273  0.1469709809662485  0.9998984332211402
  0.5200084630658042  0.1046398059605300  0.0003523429417377
  0.6031551510058398  0.1470402753723066  0.0006402911343833
  0.6449624252001378  0.1046598822619822  0.0002897127015342
  0.7281424347585544  0.1462927410343932  0.9998913149664710
  0.7700082388447969  0.1041048533263157  0.9987443674807667
  0.8535027539843605  0.1458298753756479  0.9979415013853205
  0.8952531945992060  0.1040824398984587  0.9964912679201189
  0.9788131556893108  0.1456802407988801  0.9956769142616605
  0.0210141919445251  0.2292678916708268  0.9963024794918512
  0.1044368956560640  0.2705269177855758  0.9952773024388081
  0.1459789259572866  0.2288748537577470  0.9936547985885794
  0.2292823664932659  0.2701910897480797  0.9924538838705601
  0.2701417003369608  0.2291357586251806  0.9927682662176143
  0.3949780079174524  0.2294619309724472  0.9973585215187747
  0.5187419326083622  0.2298677166381412  0.0001434268537140
  0.6014028781017829  0.2734535776808966  0.0007031904805653
  0.6437597608202091  0.2306625478911060  0.0008472434210039
  0.7272071049062312  0.2719585429398650  0.0008125356184767
  0.7694115384494016  0.2298463495516703  0.0002784482635733
  0.8529927100862803  0.2711156787801213  0.9998828432973002
  0.8952658277971639  0.2293156151155793  0.9986746633020553
  0.9786654959738347  0.2706293935716693  0.9980539706247777
  0.0208969734958236  0.3541202538296807  0.9991230527898718
  0.1042724920296095  0.3952463266537358  0.9989782372517724
  0.1472376138543617  0.3544292929744093  0.9969975245609660
  0.2297714002720391  0.3951130690077674  0.9968132031147018
  0.3528314931261929  0.3935482186459049  0.9969728816027627
  0.3933450652454777  0.3525097921512819  0.9989926466782376
  0.5158475278401371  0.3561715284192447  0.0006443781604700
  0.6425522629297953  0.3564552716263786  0.0005798496044038
  0.7256060042322720  0.3976576235545533  0.0007278638186016
  0.7684878132240607  0.3553518616485901  0.0009017589648182
  0.8521551726447327  0.3959914328974144  0.0007973815922693
  0.8946341765587251  0.3542635857651846  0.0003664481348606
  0.9784884066914954  0.3956149926887184  0.0001278378329230
  0.0208350857637684  0.4788065465908689  0.0005254214965148
  0.1047132924165408  0.5200607681127917  0.0005193200723330
  0.1471717380498263  0.4783507630235792  0.0000268418061247
  0.2301383022047672  0.5189083887849736  0.0003354523905076
  0.3568054338529472  0.5162571518361088  0.9983093669703661
  0.6426224234615532  0.4827560839430360  0.9972369366364178
  0.7691301852947363  0.4802399956267022  0.0002370686224524
  0.8520528598608302  0.5208165804157738  0.0001111981612492
  0.8945034309718585  0.4791098406045173  0.0006412818968823
  0.9783703293579036  0.5203713198648361  0.0006087768991864
  0.0206997455582389  0.6035809317146026  0.0002716738197555
  0.1045399169789044  0.6449243954437367  0.0004232511498929
  0.1470147664346922  0.6031791200489042  0.0007402688149086
  0.2306609155000950  0.6438133592604931  0.0008219653977974
  0.2735283096247339  0.6014893932054530  0.0007222552480093
  0.3565383386406576  0.6426762429322712  0.0006177135196197
  0.4832012200669156  0.6433966215842565  0.9992863108983780
  0.6057769137470500  0.6466672580530631  0.9955504950931023
  0.6462691727465749  0.6055364335053631  0.9932562124767649
  0.7694604788540876  0.6040478136063472  0.9959706614299194
  0.8519678213554531  0.6447613992881878  0.9967607141493876
  0.8949236190966092  0.6039386558320152  0.9990977941070252
  0.9782916241816773  0.6450790082724865  0.9993205879868156
  0.0204981155200746  0.7285731794004786  0.9982081078385615
  0.1038871649656843  0.7698919912852439  0.9988167404720806
  0.1461574549503496  0.7280773241169100  0.9999574471744841
  0.2297366584980154  0.7693616676855537  0.0002579651303138
  0.2719200721612043  0.7272267647677765  0.0007275670527710
  0.3553561424011815  0.7685387636564406  0.0006805207079841
  0.3977013513417352  0.7257354029980906  0.0005002328289301
  0.4803648697459426  0.7695034769406894  0.9997913698350749
  0.6041187226214331  0.7698362626710866  0.9965074540336184
  0.7290226701844212  0.7700926807129340  0.9916990646196444
  0.7698748716716628  0.7290157261546123  0.9915117943184912
  0.8531896312622772  0.7703322371590722  0.9932351157567314
  0.8947441870097849  0.7286835254920708  0.9950523369785867
  0.9781534379933328  0.7699487150207934  0.9963357554339701
  0.0203352503479361  0.8535298099796653  0.9957528411532773
  0.1038922027573868  0.8951319829269012  0.9966271879316717
  0.1456434115478987  0.8533856682922142  0.9980566433786887
  0.2291368900236453  0.8951254145184095  0.9987784292388631
  0.2709940714061851  0.8529281961345561  0.9998534578819915
  0.3541653259022503  0.8945844690453042  0.0001977373377473
  0.3959639999718750  0.8522020885044514  0.0004942099368453
  0.4791097546740533  0.8946683555134729  0.0002443664094493
  0.5208870514013874  0.8523655386811657  0.9996918379419771
  0.6040296549583788  0.8952060530369618  0.9988890406639208
  0.6449089591280466  0.8523743895644060  0.9969724897729115
  0.7287733036843843  0.8949986270394679  0.9953215550680383
  0.7703852715551787  0.8533967191530903  0.9934436181014171
  0.8536438527018333  0.8952878808222160  0.9937836004941185
  0.8951639037250232  0.8536384104766501  0.9937469538664365
  0.9787782848680648  0.8952769203418138  0.9946501028078190
  0.3535392180984386  0.2697697902162560  0.9931114123101865
  0.4771973826231878  0.2722238308366065  0.9997779903777333
  0.2700695329407711  0.3536884638206538  0.9920404584119649
  0.4733707693606786  0.3914877674996661  0.0058339752401844
  0.5996217328900868  0.3992506392282660  0.9988406821232856
  0.2727805628422849  0.4774170125829263  1.0000512968270565
  0.3927435268325611  0.4740361423558423  0.9999439057480889
  0.6064687693581039  0.5247332901889025  0.9959003131997920
  0.7265114258733570  0.5217147060765083  0.9996953947547788
  0.3994146858051101  0.5997602269197880  0.9994125932542012
  0.5257571665973240  0.6080506762419533  0.0037244437314945
  0.7291525490613894  0.6454670562345520  0.9904045762275620
  0.5219135679694156  0.7272075840507685  0.9992038708935346
  0.6455997105719392  0.7295250864467253  0.9912639419440720
  0.5037072246528336  0.5034692670533633  0.0599956592153262
 
  0.00000000E+00  0.00000000E+00  0.00000000E+00
  0.00000000E+00  0.00000000E+00  0.00000000E+00
  0.00000000E+00  0.00000000E+00  0.00000000E+00
  0.00000000E+00  0.00000000E+00  0.00000000E+00
  0.00000000E+00  0.00000000E+00  0.00000000E+00
  0.00000000E+00  0.00000000E+00  0.00000000E+00
  0.00000000E+00  0.00000000E+00  0.00000000E+00
  0.00000000E+00  0.00000000E+00  0.00000000E+00
  0.00000000E+00  0.00000000E+00  0.00000000E+00
  0.00000000E+00  0.00000000E+00  0.00000000E+00
  0.00000000E+00  0.00000000E+00  0.00000000E+00
  0.00000000E+00  0.00000000E+00  0.00000000E+00
  0.00000000E+00  0.00000000E+00  0.00000000E+00
  0.00000000E+00  0.00000000E+00  0.00000000E+00
  0.00000000E+00  0.00000000E+00  0.00000000E+00
  0.00000000E+00  0.00000000E+00  0.00000000E+00
  0.00000000E+00  0.00000000E+00  0.00000000E+00
  0.00000000E+00  0.00000000E+00  0.00000000E+00
  0.00000000E+00  0.00000000E+00  0.00000000E+00
  0.00000000E+00  0.00000000E+00  0.00000000E+00
  0.00000000E+00  0.00000000E+00  0.00000000E+00
  0.00000000E+00  0.00000000E+00  0.00000000E+00
  0.00000000E+00  0.00000000E+00  0.00000000E+00
  0.00000000E+00  0.00000000E+00  0.00000000E+00
  0.00000000E+00  0.00000000E+00  0.00000000E+00
  0.00000000E+00  0.00000000E+00  0.00000000E+00
  0.00000000E+00  0.00000000E+00  0.00000000E+00
  0.00000000E+00  0.00000000E+00  0.00000000E+00
  0.00000000E+00  0.00000000E+00  0.00000000E+00
  0.00000000E+00  0.00000000E+00  0.00000000E+00
  0.00000000E+00  0.00000000E+00  0.00000000E+00
  0.00000000E+00  0.00000000E+00  0.00000000E+00
  0.00000000E+00  0.00000000E+00  0.00000000E+00
  0.00000000E+00  0.00000000E+00  0.00000000E+00
  0.00000000E+00  0.00000000E+00  0.00000000E+00
  0.00000000E+00  0.00000000E+00  0.00000000E+00
  0.00000000E+00  0.00000000E+00  0.00000000E+00
  0.00000000E+00  0.00000000E+00  0.00000000E+00
  0.00000000E+00  0.00000000E+00  0.00000000E+00
  0.00000000E+00  0.00000000E+00  0.00000000E+00
  0.00000000E+00  0.00000000E+00  0.00000000E+00
  0.00000000E+00  0.00000000E+00  0.00000000E+00
  0.00000000E+00  0.00000000E+00  0.00000000E+00
  0.00000000E+00  0.00000000E+00  0.00000000E+00
  0.00000000E+00  0.00000000E+00  0.00000000E+00
  0.00000000E+00  0.00000000E+00  0.00000000E+00
  0.00000000E+00  0.00000000E+00  0.00000000E+00
  0.00000000E+00  0.00000000E+00  0.00000000E+00
  0.00000000E+00  0.00000000E+00  0.00000000E+00
  0.00000000E+00  0.00000000E+00  0.00000000E+00
  0.00000000E+00  0.00000000E+00  0.00000000E+00
  0.00000000E+00  0.00000000E+00  0.00000000E+00
  0.00000000E+00  0.00000000E+00  0.00000000E+00
  0.00000000E+00  0.00000000E+00  0.00000000E+00
  0.00000000E+00  0.00000000E+00  0.00000000E+00
  0.00000000E+00  0.00000000E+00  0.00000000E+00
  0.00000000E+00  0.00000000E+00  0.00000000E+00
  0.00000000E+00  0.00000000E+00  0.00000000E+00
  0.00000000E+00  0.00000000E+00  0.00000000E+00
  0.00000000E+00  0.00000000E+00  0.00000000E+00
  0.00000000E+00  0.00000000E+00  0.00000000E+00
  0.00000000E+00  0.00000000E+00  0.00000000E+00
  0.00000000E+00  0.00000000E+00  0.00000000E+00
  0.00000000E+00  0.00000000E+00  0.00000000E+00
  0.00000000E+00  0.00000000E+00  0.00000000E+00
  0.00000000E+00  0.00000000E+00  0.00000000E+00
  0.00000000E+00  0.00000000E+00  0.00000000E+00
  0.00000000E+00  0.00000000E+00  0.00000000E+00
  0.00000000E+00  0.00000000E+00  0.00000000E+00
  0.00000000E+00  0.00000000E+00  0.00000000E+00
  0.00000000E+00  0.00000000E+00  0.00000000E+00
  0.00000000E+00  0.00000000E+00  0.00000000E+00
  0.00000000E+00  0.00000000E+00  0.00000000E+00
  0.00000000E+00  0.00000000E+00  0.00000000E+00
  0.00000000E+00  0.00000000E+00  0.00000000E+00
  0.00000000E+00  0.00000000E+00  0.00000000E+00
  0.00000000E+00  0.00000000E+00  0.00000000E+00
  0.00000000E+00  0.00000000E+00  0.00000000E+00
  0.00000000E+00  0.00000000E+00  0.00000000E+00
  0.00000000E+00  0.00000000E+00  0.00000000E+00
  0.00000000E+00  0.00000000E+00  0.00000000E+00
  0.00000000E+00  0.00000000E+00  0.00000000E+00
  0.00000000E+00  0.00000000E+00  0.00000000E+00
  0.00000000E+00  0.00000000E+00  0.00000000E+00
  0.00000000E+00  0.00000000E+00  0.00000000E+00
  0.00000000E+00  0.00000000E+00  0.00000000E+00
  0.00000000E+00  0.00000000E+00  0.00000000E+00
  0.00000000E+00  0.00000000E+00  0.00000000E+00
  0.00000000E+00  0.00000000E+00  0.00000000E+00
  0.00000000E+00  0.00000000E+00  0.00000000E+00
  0.00000000E+00  0.00000000E+00  0.00000000E+00
  0.00000000E+00  0.00000000E+00  0.00000000E+00
  0.00000000E+00  0.00000000E+00  0.00000000E+00
  0.00000000E+00  0.00000000E+00  0.00000000E+00
  0.00000000E+00  0.00000000E+00  0.00000000E+00
  0.00000000E+00  0.00000000E+00  0.00000000E+00
  0.00000000E+00  0.00000000E+00  0.00000000E+00
  0.00000000E+00  0.00000000E+00  0.00000000E+00
  0.00000000E+00  0.00000000E+00  0.00000000E+00
  0.00000000E+00  0.00000000E+00  0.00000000E+00
  0.00000000E+00  0.00000000E+00  0.00000000E+00
  0.00000000E+00  0.00000000E+00  0.00000000E+00
  0.00000000E+00  0.00000000E+00  0.00000000E+00
  0.00000000E+00  0.00000000E+00  0.00000000E+00
  0.00000000E+00  0.00000000E+00  0.00000000E+00
  0.00000000E+00  0.00000000E+00  0.00000000E+00
  0.00000000E+00  0.00000000E+00  0.00000000E+00
  0.00000000E+00  0.00000000E+00  0.00000000E+00
  0.00000000E+00  0.00000000E+00  0.00000000E+00
  0.00000000E+00  0.00000000E+00  0.00000000E+00
  0.00000000E+00  0.00000000E+00  0.00000000E+00
  0.00000000E+00  0.00000000E+00  0.00000000E+00
  0.00000000E+00  0.00000000E+00  0.00000000E+00
  0.00000000E+00  0.00000000E+00  0.00000000E+00
  0.00000000E+00  0.00000000E+00  0.00000000E+00
  0.00000000E+00  0.00000000E+00  0.00000000E+00
  0.00000000E+00  0.00000000E+00  0.00000000E+00
  0.00000000E+00  0.00000000E+00  0.00000000E+00
  0.00000000E+00  0.00000000E+00  0.00000000E+00
  0.00000000E+00  0.00000000E+00  0.00000000E+00
  0.00000000E+00  0.00000000E+00  0.00000000E+00
  0.00000000E+00  0.00000000E+00  0.00000000E+00
  0.00000000E+00  0.00000000E+00  0.00000000E+00
  0.00000000E+00  0.00000000E+00  0.00000000E+00
  0.00000000E+00  0.00000000E+00  0.00000000E+00
  0.00000000E+00  0.00000000E+00  0.00000000E+00
  0.00000000E+00  0.00000000E+00  0.00000000E+00
  0.00000000E+00  0.00000000E+00  0.00000000E+00
  0.00000000E+00  0.00000000E+00  0.00000000E+00
  0.00000000E+00  0.00000000E+00  0.00000000E+00
  0.00000000E+00  0.00000000E+00  0.00000000E+00
  0.00000000E+00  0.00000000E+00  0.00000000E+00
  0.00000000E+00  0.00000000E+00  0.00000000E+00
  0.00000000E+00  0.00000000E+00  0.00000000E+00
  0.00000000E+00  0.00000000E+00  0.00000000E+00
  0.00000000E+00  0.00000000E+00  0.00000000E+00
