RuN14                                   
   1.00000000000000     
    17.0990259999999985   -9.8721239999999995    0.0000000000000000
     0.0000000000000000   19.7442530000000005    0.0000000000000000
     0.0000000000000000    0.0000000000000000   20.0000000000000000
   H    C    N    Ru
     6   116    13     1
Selective dynamics
Direct
  0.5172607816422976  0.4409001434282753  0.1738876874397223   T   T   T
  0.6179852165880687  0.4870281776178455  0.1408576645004186   T   T   T
  0.4285333022320152  0.4747704914933305  0.1144782374457561   T   T   T
  0.6771427369161716  0.6532087799812599  0.1583517801250199   T   T   T
  0.6024353984295517  0.6421798182576961  0.2132345470598931   T   T   T
  0.6098979018236731  0.6849845734465495  0.1328926815654858   T   T   T
  0.5630935722236724  0.4887569256577184  0.1446966027620200   T   T   T
  0.5640038122801162  0.5594325299810357  0.1347118017607092   T   T   T
  0.6154677304033702  0.6396289489362826  0.1599001503905282   T   T   T
  0.0208411235338688  0.9786167242156415  0.9950849314286055   T   T   T
  0.1042100809073273  0.0201567009852812  0.9946172850309520   T   T   T
  0.1458314315618005  0.9785272942634854  0.9961281818920337   T   T   T
  0.2293928554868823  0.0206129887853727  0.9963690451288898   T   T   T
  0.2707526941537458  0.9783363156807606  0.9984863261672337   T   T   T
  0.3541067551753109  0.0203063257818118  0.9990356693162101   T   T   T
  0.3956548540670400  0.9780533987544592  0.0002957010209454   T   T   T
  0.4789081241799796  0.0203399796986851  0.0002060173666494   T   T   T
  0.5204351704314346  0.9778623100289098  0.0002986293692394   T   T   T
  0.6037649546510236  0.0203779444619506  0.9995475184172784   T   T   T
  0.6453727741530355  0.9780673251378194  0.9985781075541444   T   T   T
  0.7287961655734949  0.0202129811769344  0.9976560733709381   T   T   T
  0.7702932901141272  0.9783014615646105  0.9965546593171833   T   T   T
  0.8538390174204689  0.0203805011198799  0.9957597726101980   T   T   T
  0.8957947963930208  0.9789364296628826  0.9952334907468351   T   T   T
  0.9790930018980526  0.0204879725035881  0.9946290633822131   T   T   T
  0.0207135626721009  0.1039067414724441  0.9940221108833257   T   T   T
  0.1043311314034603  0.1455045122390763  0.9929492757028227   T   T   T
  0.1458677040846810  0.1037923556947629  0.9931308840298829   T   T   T
  0.2289794575669364  0.1455840047731914  0.9929011251955765   T   T   T
  0.2706510374667280  0.1040365269115859  0.9948329480318140   T   T   T
  0.3544645183566750  0.1465036565887099  0.9964426252320518   T   T   T
  0.3952231359862780  0.1037826827765681  0.9983125729778932   T   T   T
  0.4784048966737445  0.1466286900340597  0.9992558221212697   T   T   T
  0.5201495958260679  0.1042309331015206  0.9999119565889659   T   T   T
  0.6032511824094627  0.1466421633390358  0.0002752983227706   T   T   T
  0.6450052975493473  0.1041540157203798  0.9997876508421618   T   T   T
  0.7282832845213694  0.1459299226105503  0.9993671934889846   T   T   T
  0.7702213869957798  0.1039662283379890  0.9981232039972679   T   T   T
  0.8535845174283838  0.1455711606652529  0.9973532128294368   T   T   T
  0.8954484284180717  0.1038904519545896  0.9959752388098866   T   T   T
  0.9790396740851994  0.1455136180238152  0.9949769018574242   T   T   T
  0.0212075612936132  0.2291117339614928  0.9956818379491683   T   T   T
  0.1045776799564899  0.2703108159546563  0.9946310243446839   T   T   T
  0.1462413952453398  0.2287493362983319  0.9926053577872954   T   T   T
  0.2296917951313787  0.2702434823424021  0.9912759398176005   T   T   T
  0.2704064121254119  0.2289375651198000  0.9915370277175872   T   T   T
  0.3953094424360514  0.2293572022199928  0.9965802228116013   T   T   T
  0.5187409957703238  0.2294866997865113  0.9997110350616443   T   T   T
  0.6014716615806116  0.2731894783341342  0.0010433806992797   T   T   T
  0.6438059295261772  0.2303359522532382  0.0008793386604532   T   T   T
  0.7272855828069335  0.2716856074790529  0.0010540089025998   T   T   T
  0.7695194991953628  0.2295447822132280  0.0001301892151746   T   T   T
  0.8530551104876078  0.2707799645349098  0.9998940958029102   T   T   T
  0.8954112991764913  0.2291533857320706  0.9983248026747887   T   T   T
  0.9787669769976082  0.2703977734384446  0.9978701522727838   T   T   T
  0.0210173607234888  0.3538300019844469  0.9998619891087219   T   T   T
  0.1042806875076596  0.3949083870511647  0.0003524845719153   T   T   T
  0.1474504148160835  0.3542823541096696  0.9974398066222470   T   T   T
  0.2297447432090466  0.3947348769889477  0.9973241852375033   T   T   T
  0.3531091514122477  0.3931945113150616  0.9966291983027692   T   T   T
  0.3928387952822230  0.3516566644602313  0.0012074515084417   T   T   T
  0.5162293493934694  0.3555007263589885  0.0050841036025248   T   T   T
  0.6425309806811744  0.3561494525661479  0.0018622110481054   T   T   T
  0.7256482451101626  0.3973984130917042  0.0023206626905233   T   T   T
  0.7684646000097196  0.3550711981494569  0.0018572314471629   T   T   T
  0.8522825955369506  0.3957122046798473  0.0020477196325045   T   T   T
  0.8947305568119021  0.3540560911164234  0.0011074383714175   T   T   T
  0.9785598073474803  0.3953103611382414  0.0013357517372560   T   T   T
  0.0210266525645851  0.4785317123074714  0.0027028077408294   T   T   T
  0.1049403555394726  0.5197789483910953  0.0034486904196519   T   T   T
  0.1473598052890554  0.4779774470482553  0.0027734283336598   T   T   T
  0.2302117937851702  0.5184463375556000  0.0041012194908066   T   T   T
  0.3564063687119429  0.5160150552172666  0.0037992498701447   T   T   T
  0.6428015331786925  0.4821576500538611  0.0009003282174532   T   T   T
  0.7693150839476469  0.4801313500409560  0.0029207892397047   T   T   T
  0.8523677737385893  0.5206444784750139  0.0029297390412019   T   T   T
  0.8946818573186676  0.4788380248632348  0.0027773271810184   T   T   T
  0.9786000303080548  0.5201013554153078  0.0030434012143592   T   T   T
  0.0209598795431965  0.6033300508254854  0.0031835692024012   T   T   T
  0.1047602338555981  0.6446374094955012  0.0035747524859931   T   T   T
  0.1471403281623670  0.6028668793093408  0.0042216158599243   T   T   T
  0.2307669440943751  0.6435474926092354  0.0051093410783259   T   T   T
  0.2734568568908002  0.6011665148214400  0.0059916249231640   T   T   T
  0.3563339373921437  0.6421095967938981  0.0075121992459968   T   T   T
  0.4828770400828544  0.6420782651065932  0.0118499721205392   T   T   T
  0.6472492215284944  0.6046492036101890  0.9987588623436412   T   T   T
  0.7698734301249872  0.6036466405230845  0.0005327005989926   T   T   T
  0.8524125874914543  0.6446572976957460  0.0008727126259341   T   T   T
  0.8952724891507581  0.6036985978946061  0.0024392340253529   T   T   T
  0.9786797550219828  0.6448945045477245  0.0024233559906840   T   T   T
  0.0209562448575485  0.7283608411102475  0.0011988987575066   T   T   T
  0.1042721202217718  0.7696915537771190  0.0013799497185862   T   T   T
  0.1464215971294313  0.7278603635268679  0.0029159973785237   T   T   T
  0.2299176627033542  0.7691134613252747  0.0032355232488269   T   T   T
  0.2720029832931042  0.7269549400073162  0.0046114757300443   T   T   T
  0.3553859108746836  0.7681168824102258  0.0043209950101507   T   T   T
  0.3974368008111264  0.7252240023850517  0.0052862466139681   T   T   T
  0.4803246957250683  0.7684083363249561  0.0020970652082422   T   T   T
  0.6035625504438673  0.7677401341325830  0.9980452017664384   T   T   T
  0.7293931044907745  0.7697720564560503  0.9960957219535935   T   T   T
  0.7715303885369257  0.7293517052309788  0.9968985290378624   T   T   T
  0.8539142527896600  0.7701392376628090  0.9973934114505354   T   T   T
  0.8956045215915130  0.7285420766263524  0.9991989061874823   T   T   T
  0.9786899883926049  0.7697469725701447  0.9994685435461148   T   T   T
  0.0208329632700569  0.8534420187743559  0.9978720623336060   T   T   T
  0.1042121900338579  0.8949458374912792  0.9979156730900919   T   T   T
  0.1460097435878271  0.8532216324808535  0.9998067084134205   T   T   T
  0.2293752574333871  0.8948490339124878  0.0000563187880340   T   T   T
  0.2711812044450119  0.8527023226671880  0.0017843983143231   T   T   T
  0.3543529474068680  0.8942556779637149  0.0015565208237932   T   T   T
  0.3960615299050385  0.8518275720848050  0.0024390695911310   T   T   T
  0.4791681145258336  0.8939444403643757  0.0011541024067390   T   T   T
  0.5207490575341953  0.8513493762768738  0.0005481137887129   T   T   T
  0.6043387947110911  0.8944855534405232  0.9986018669857892   T   T   T
  0.6451783686905660  0.8521733499542673  0.9973717203487836   T   T   T
  0.7286884528534282  0.8943695419028236  0.9963878426150533   T   T   T
  0.7710261098523197  0.8533847736140092  0.9957979842241836   T   T   T
  0.8542165535037572  0.8953757373679182  0.9956328535181911   T   T   T
  0.8957317636532732  0.8536929891208835  0.9964097452638303   T   T   T
  0.9792274418017197  0.8952007243254060  0.9964327751699485   T   T   T
  0.6462731338957899  0.7287744642513880  0.9973545139722603   T   T   T
  0.5272506278657555  0.6066098642378811  0.0234733354614706   T   T   T
  0.3536712142088951  0.2692976671542683  0.9919097340535703   T   T   T
  0.4773558793241767  0.2719354859969497  0.9991873204551959   T   T   T
  0.2702084324020899  0.3535105349901028  0.9904192829077572   T   T   T
  0.4713757857511328  0.3888958740976505  0.0163529137763477   T   T   T
  0.5992600640392353  0.3990640535400657  0.0018035493940359   T   T   T
  0.2731804247888261  0.4770615102083189  0.0024863773643357   T   T   T
  0.3931433235159935  0.4738226837333872  0.0024736722667946   T   T   T
  0.6075383697697877  0.5261963792102998  0.9975921316264665   T   T   T
  0.7269608210838459  0.5214772185403261  0.0028773830889826   T   T   T
  0.3985154939862748  0.5990193437927761  0.0098286815648013   T   T   T
  0.6074853436693793  0.6460128418564811  0.0048156383237339   T   T   T
  0.7294585287774784  0.6458754281998577  0.9979597566751415   T   T   T
  0.5207927231094885  0.7261886842720164 -0.0001135651823406   T   T   T
  0.4985522122870299  0.4991172168717163  0.0612067748698420   T   T   T
 
  0.00000000E+00  0.00000000E+00  0.00000000E+00
  0.00000000E+00  0.00000000E+00  0.00000000E+00
  0.00000000E+00  0.00000000E+00  0.00000000E+00
  0.00000000E+00  0.00000000E+00  0.00000000E+00
  0.00000000E+00  0.00000000E+00  0.00000000E+00
  0.00000000E+00  0.00000000E+00  0.00000000E+00
  0.00000000E+00  0.00000000E+00  0.00000000E+00
  0.00000000E+00  0.00000000E+00  0.00000000E+00
  0.00000000E+00  0.00000000E+00  0.00000000E+00
  0.00000000E+00  0.00000000E+00  0.00000000E+00
  0.00000000E+00  0.00000000E+00  0.00000000E+00
  0.00000000E+00  0.00000000E+00  0.00000000E+00
  0.00000000E+00  0.00000000E+00  0.00000000E+00
  0.00000000E+00  0.00000000E+00  0.00000000E+00
  0.00000000E+00  0.00000000E+00  0.00000000E+00
  0.00000000E+00  0.00000000E+00  0.00000000E+00
  0.00000000E+00  0.00000000E+00  0.00000000E+00
  0.00000000E+00  0.00000000E+00  0.00000000E+00
  0.00000000E+00  0.00000000E+00  0.00000000E+00
  0.00000000E+00  0.00000000E+00  0.00000000E+00
  0.00000000E+00  0.00000000E+00  0.00000000E+00
  0.00000000E+00  0.00000000E+00  0.00000000E+00
  0.00000000E+00  0.00000000E+00  0.00000000E+00
  0.00000000E+00  0.00000000E+00  0.00000000E+00
  0.00000000E+00  0.00000000E+00  0.00000000E+00
  0.00000000E+00  0.00000000E+00  0.00000000E+00
  0.00000000E+00  0.00000000E+00  0.00000000E+00
  0.00000000E+00  0.00000000E+00  0.00000000E+00
  0.00000000E+00  0.00000000E+00  0.00000000E+00
  0.00000000E+00  0.00000000E+00  0.00000000E+00
  0.00000000E+00  0.00000000E+00  0.00000000E+00
  0.00000000E+00  0.00000000E+00  0.00000000E+00
  0.00000000E+00  0.00000000E+00  0.00000000E+00
  0.00000000E+00  0.00000000E+00  0.00000000E+00
  0.00000000E+00  0.00000000E+00  0.00000000E+00
  0.00000000E+00  0.00000000E+00  0.00000000E+00
  0.00000000E+00  0.00000000E+00  0.00000000E+00
  0.00000000E+00  0.00000000E+00  0.00000000E+00
  0.00000000E+00  0.00000000E+00  0.00000000E+00
  0.00000000E+00  0.00000000E+00  0.00000000E+00
  0.00000000E+00  0.00000000E+00  0.00000000E+00
  0.00000000E+00  0.00000000E+00  0.00000000E+00
  0.00000000E+00  0.00000000E+00  0.00000000E+00
  0.00000000E+00  0.00000000E+00  0.00000000E+00
  0.00000000E+00  0.00000000E+00  0.00000000E+00
  0.00000000E+00  0.00000000E+00  0.00000000E+00
  0.00000000E+00  0.00000000E+00  0.00000000E+00
  0.00000000E+00  0.00000000E+00  0.00000000E+00
  0.00000000E+00  0.00000000E+00  0.00000000E+00
  0.00000000E+00  0.00000000E+00  0.00000000E+00
  0.00000000E+00  0.00000000E+00  0.00000000E+00
  0.00000000E+00  0.00000000E+00  0.00000000E+00
  0.00000000E+00  0.00000000E+00  0.00000000E+00
  0.00000000E+00  0.00000000E+00  0.00000000E+00
  0.00000000E+00  0.00000000E+00  0.00000000E+00
  0.00000000E+00  0.00000000E+00  0.00000000E+00
  0.00000000E+00  0.00000000E+00  0.00000000E+00
  0.00000000E+00  0.00000000E+00  0.00000000E+00
  0.00000000E+00  0.00000000E+00  0.00000000E+00
  0.00000000E+00  0.00000000E+00  0.00000000E+00
  0.00000000E+00  0.00000000E+00  0.00000000E+00
  0.00000000E+00  0.00000000E+00  0.00000000E+00
  0.00000000E+00  0.00000000E+00  0.00000000E+00
  0.00000000E+00  0.00000000E+00  0.00000000E+00
  0.00000000E+00  0.00000000E+00  0.00000000E+00
  0.00000000E+00  0.00000000E+00  0.00000000E+00
  0.00000000E+00  0.00000000E+00  0.00000000E+00
  0.00000000E+00  0.00000000E+00  0.00000000E+00
  0.00000000E+00  0.00000000E+00  0.00000000E+00
  0.00000000E+00  0.00000000E+00  0.00000000E+00
  0.00000000E+00  0.00000000E+00  0.00000000E+00
  0.00000000E+00  0.00000000E+00  0.00000000E+00
  0.00000000E+00  0.00000000E+00  0.00000000E+00
  0.00000000E+00  0.00000000E+00  0.00000000E+00
  0.00000000E+00  0.00000000E+00  0.00000000E+00
  0.00000000E+00  0.00000000E+00  0.00000000E+00
  0.00000000E+00  0.00000000E+00  0.00000000E+00
  0.00000000E+00  0.00000000E+00  0.00000000E+00
  0.00000000E+00  0.00000000E+00  0.00000000E+00
  0.00000000E+00  0.00000000E+00  0.00000000E+00
  0.00000000E+00  0.00000000E+00  0.00000000E+00
  0.00000000E+00  0.00000000E+00  0.00000000E+00
  0.00000000E+00  0.00000000E+00  0.00000000E+00
  0.00000000E+00  0.00000000E+00  0.00000000E+00
  0.00000000E+00  0.00000000E+00  0.00000000E+00
  0.00000000E+00  0.00000000E+00  0.00000000E+00
  0.00000000E+00  0.00000000E+00  0.00000000E+00
  0.00000000E+00  0.00000000E+00  0.00000000E+00
  0.00000000E+00  0.00000000E+00  0.00000000E+00
  0.00000000E+00  0.00000000E+00  0.00000000E+00
  0.00000000E+00  0.00000000E+00  0.00000000E+00
  0.00000000E+00  0.00000000E+00  0.00000000E+00
  0.00000000E+00  0.00000000E+00  0.00000000E+00
  0.00000000E+00  0.00000000E+00  0.00000000E+00
  0.00000000E+00  0.00000000E+00  0.00000000E+00
  0.00000000E+00  0.00000000E+00  0.00000000E+00
  0.00000000E+00  0.00000000E+00  0.00000000E+00
  0.00000000E+00  0.00000000E+00  0.00000000E+00
  0.00000000E+00  0.00000000E+00  0.00000000E+00
  0.00000000E+00  0.00000000E+00  0.00000000E+00
  0.00000000E+00  0.00000000E+00  0.00000000E+00
  0.00000000E+00  0.00000000E+00  0.00000000E+00
  0.00000000E+00  0.00000000E+00  0.00000000E+00
  0.00000000E+00  0.00000000E+00  0.00000000E+00
  0.00000000E+00  0.00000000E+00  0.00000000E+00
  0.00000000E+00  0.00000000E+00  0.00000000E+00
  0.00000000E+00  0.00000000E+00  0.00000000E+00
  0.00000000E+00  0.00000000E+00  0.00000000E+00
  0.00000000E+00  0.00000000E+00  0.00000000E+00
  0.00000000E+00  0.00000000E+00  0.00000000E+00
  0.00000000E+00  0.00000000E+00  0.00000000E+00
  0.00000000E+00  0.00000000E+00  0.00000000E+00
  0.00000000E+00  0.00000000E+00  0.00000000E+00
  0.00000000E+00  0.00000000E+00  0.00000000E+00
  0.00000000E+00  0.00000000E+00  0.00000000E+00
  0.00000000E+00  0.00000000E+00  0.00000000E+00
  0.00000000E+00  0.00000000E+00  0.00000000E+00
  0.00000000E+00  0.00000000E+00  0.00000000E+00
  0.00000000E+00  0.00000000E+00  0.00000000E+00
  0.00000000E+00  0.00000000E+00  0.00000000E+00
  0.00000000E+00  0.00000000E+00  0.00000000E+00
  0.00000000E+00  0.00000000E+00  0.00000000E+00
  0.00000000E+00  0.00000000E+00  0.00000000E+00
  0.00000000E+00  0.00000000E+00  0.00000000E+00
  0.00000000E+00  0.00000000E+00  0.00000000E+00
  0.00000000E+00  0.00000000E+00  0.00000000E+00
  0.00000000E+00  0.00000000E+00  0.00000000E+00
  0.00000000E+00  0.00000000E+00  0.00000000E+00
  0.00000000E+00  0.00000000E+00  0.00000000E+00
  0.00000000E+00  0.00000000E+00  0.00000000E+00
  0.00000000E+00  0.00000000E+00  0.00000000E+00
  0.00000000E+00  0.00000000E+00  0.00000000E+00
  0.00000000E+00  0.00000000E+00  0.00000000E+00
  0.00000000E+00  0.00000000E+00  0.00000000E+00
  0.00000000E+00  0.00000000E+00  0.00000000E+00
  0.00000000E+00  0.00000000E+00  0.00000000E+00
