 H  C  N Ru                             
   1.00000000000000     
    17.0990259999999985   -9.8721239999999995    0.0000000000000000
     0.0000000000000000   19.7442530000000005    0.0000000000000000
     0.0000000000000000    0.0000000000000000   20.0000000000000000
   H    C    N    Ru
     6   116    13     1
Direct
  0.5747169036260228  0.5390135922533217  0.1831723129667246
  0.5524008731097220  0.6459319919996214  0.0943541571520992
  0.4100087156978287  0.4034444877551448  0.1638403934572084
  0.4350580960970486  0.5723014777838831  0.1716060384485078
  0.3917250901832658  0.5008360241282919  0.2358346301029946
  0.3427818617779838  0.4866277519015290  0.1581993462993998
  0.5256884824970446  0.5057843980707296  0.1485829529472319
  0.4422226370060310  0.4669764795717800  0.1540265262110334
  0.4009637888424449  0.5089367816997210  0.1812500176440404
  0.0214784202318294  0.9779576396119708  0.9909990041237873
  0.1049059843466813  0.0195640980564948  0.9914351222662194
  0.1465493281705160  0.9779536090535393  0.9931794306735033
  0.2301325269607374  0.0200276681428845  0.9946302035707163
  0.2715209899247171  0.9777165466013997  0.9972705247656501
  0.3547913992287279  0.0196430662146418  0.9988992119610847
  0.3963688798329890  0.9773762942279607  0.0005064582657398
  0.4796381603325726  0.0196538504077189  0.0010079821544991
  0.5212016976581524  0.9773472028631023  0.0015377984069205
  0.6045300035874337  0.0197347230529789  0.0009236212252555
  0.6461251204592493  0.9774031720988585  0.0002324966404731
  0.7294476629141227  0.0194914956203175  0.9981686801121857
  0.7708224027553151  0.9774841127407423  0.9959255761053880
  0.8543837841953534  0.0196161885847792  0.9936216611260728
  0.8964445435943267  0.9782795105174782  0.9917669182411780
  0.9797268305050693  0.0198371038278407  0.9909377031097180
  0.0213920628428453  0.1033003416723432  0.9913833705975654
  0.1050084255684437  0.1449474986050167  0.9911147499758757
  0.1465752974669082  0.1032551185958729  0.9910570166541093
  0.2297268599989279  0.1451069485840339  0.9917876760291338
  0.2714477131713350  0.1034776118269364  0.9938889956883794
  0.3552404052662049  0.1459171460602137  0.9965060124620342
  0.3959340464897620  0.1031260962320492  0.9986880921368607
  0.4791080656803828  0.1459154371382337  0.0000398155369373
  0.5208824524766134  0.1035936337601563  0.0007734391035235
  0.6039492930568942  0.1458965863214120  0.0011478477821922
  0.6457403104922821  0.1034894020623717  0.0007197844809218
  0.7290364465706664  0.1452765332732369 -0.0000476961478770
  0.7708956759714805  0.1032812911732595  0.9982458808062477
  0.8542312779460601  0.1448714738415547  0.9967270126588043
  0.8960455182502192  0.1031469990073760  0.9942865426604398
  0.9796441399796512  0.1448263850183560  0.9930859235880084
  0.0217712899852983  0.2284217492454336  0.9947052583884510
  0.1052402201514601  0.2697423662803288  0.9942322943203249
  0.1469809792404288  0.2282281373969153  0.9921095431410318
  0.2303710616355246  0.2698020955205754  0.9919266834311934
  0.2712192845086344  0.2284909154360635  0.9914782655104063
  0.3960581060272905  0.2287220653918096  0.9969605698996249
  0.5195781676904119  0.2286552511731433  0.0005398932533323
  0.6022621428033317  0.2723926903472494  0.0019104925641890
  0.6446018802779848  0.2296586919612839  0.0017147752571937
  0.7280097245276419  0.2710104169786497  0.0017596536937266
  0.7702152192206125  0.2288993346749369  0.0006030908437129
  0.8537339538636360  0.2701015823244658  0.0000011724030924
  0.8959773141869687  0.2284373499827529  0.9979595072054034
  0.9794439977891931  0.2697663005970766  0.9973333072354096
  0.0214914101216607  0.3531007040548061  0.9995150406451868
  0.1049595952147614  0.3942247522614944  0.9999291981265772
  0.1478313842733373  0.3535135045265251  0.9972717558188202
  0.2306538235910059  0.3943915304730954  0.9977461960663432
  0.3539756819956263  0.3930617515876949  0.9974774407170858
  0.3937839310750021  0.3511821966090428  0.9996420348199374
  0.5172551075904710  0.3543052153607194  0.0050185096752950
  0.6433868659703459  0.3553828475104449  0.0028982718051332
  0.7262973506527240  0.3966728771109948  0.0028706122758916
  0.7691758700117471  0.3544623637841162  0.0023272041739907
  0.8529696653476240  0.3951013622082676  0.0020302809720012
  0.8953613213218862  0.3534239771560257  0.0010920998926499
  0.9791500369766826  0.3946082418001221  0.0010383688140985
  0.0215892021479805  0.4778746445500395  0.0019465460877831
  0.1053817144016149  0.5190532858183867  0.0024211722202246
  0.1477785205479932  0.4773043076782308  0.0020481580460688
  0.2306026393711322  0.5176966198198274  0.0030731736443582
  0.3573043467126997  0.5157989088942500  0.0036511599400976
  0.6440851821514184  0.4817363040471356  0.0022320480710145
  0.7701267168244404  0.4796167858097299  0.0026041031741485
  0.8531032993982527  0.5200728580879982  0.0018689436027797
  0.8953780609097419  0.4782495652819201  0.0020661769439393
  0.9792242912216076  0.5194578128040382  0.0019144765159677
  0.0216817437878991  0.6027188027431661  0.0013515656935491
  0.1054026870873186  0.6439925916162251  0.0016785334569181
  0.1476706852285729  0.6021943250010048  0.0026333356438650
  0.2312487126029750  0.6428323101694209  0.0033244166417254
  0.2739927230564412  0.6003985053747423  0.0040712640760155
  0.3567356921101635  0.6414289789459032  0.0053473561686684
  0.4821357690286091  0.6420472820196891  0.0139445690342946
  0.6486541672042844  0.6047014247928720  0.0030033036572235
  0.7706669003778279  0.6027024907733510  0.9985950151297479
  0.8534591759570221  0.6440403137616887  0.9981334221608166
  0.8961265075439814  0.6031203225165614  0.0003136427768277
  0.9795521016701211  0.6443381128399825  0.9999993247638236
  0.0216577656369425  0.7277237889507803  0.9980711174892219
  0.1050497036501783  0.7691222378571726  0.9986320426880553
  0.1470830348793943  0.7272174608893271  0.0007535747476939
  0.2305412016070106  0.7683773799349387  0.0015174385226742
  0.2724888503575959  0.7261384290898049  0.0030410205495930
  0.3560257964689053  0.7673900034399067  0.0036075810463327
  0.3979883001764910  0.7247670914652065  0.0048274355707307
  0.4808603587020766  0.7680931832567199  0.0043058579674810
  0.6041056166197820  0.7666565596278108  0.0024153765713977
  0.7303549622112228  0.7693541996040223  0.9942055790306397
  0.7723599978495493  0.7287225810162510  0.9933226721399657
  0.8545225765175679  0.7693939390044976  0.9930160196074451
  0.8962691406450235  0.7276824539542719  0.9951467241592102
  0.9794398444547140  0.7690917479676335  0.9954975715138510
  0.0215259714212265  0.8527824132071795  0.9936112419495037
  0.1048777012858008  0.8943154294457959  0.9944422736535162
  0.1466942870709481  0.8525379790497930  0.9970343579469636
  0.2301206413717220  0.8941426822580280  0.9982693347480001
  0.2718500713531859  0.8520068220386011  0.0005044777361669
  0.3551227443059939  0.8936134655894435  0.0012969277976682
  0.3968638237379936  0.8512865266190490  0.0026330548891562
  0.4799184374336511  0.8933663128537443  0.0023779636345674
  0.5215762908883005  0.8508684280985737  0.0027591779647619
  0.6051404463127356  0.8938259160111128  0.0012830131833204
  0.6456626961015198  0.8512014894009869  0.0000184334046699
  0.7291391822141469  0.8935272335578653  0.9963448697334214
  0.7717271206628382  0.8527578464903038  0.9936277590438640
  0.8548772156300475  0.8947237709992298  0.9918831885800865
  0.8963917629532099  0.8530572190142943  0.9918570342432871
  0.9798244355476000  0.8945341087412680  0.9918314467772801
  0.6473752297033770  0.7277223031447774  0.9990254096077027
  0.5334361443048052  0.6137009667317437  0.0462228049601883
  0.3541988404479576  0.2687036095704693  0.9922349583379257
  0.4783931688927757  0.2714547938240202  0.0000158262965692
  0.2710092770309154  0.3532226650744381  0.9928834616004156
  0.4725257834598613  0.3885344141983558  0.0125476048031388
  0.6001045130949749  0.3984821690225072  0.0035198021653836
  0.2732991065092004  0.4764138922516742  0.0023727290651225
  0.3944589103823767  0.4740928581640187  0.0039263531231245
  0.6089934474375308  0.5271277638186413  0.0093436701838139
  0.7277389817816184  0.5210962421060962  0.0020162531902675
  0.3998248158059373  0.5987220773100568  0.0078410245847572
  0.6100518220961821  0.6465058852150707  0.0076049619587778
  0.7302794816779189  0.6449827479271854  0.9938309191342221
  0.5207370596229142  0.7247092357035368  0.0061384175579151
  0.5003519950439621  0.4962433679595029  0.0580227835123429
 
  0.00000000E+00  0.00000000E+00  0.00000000E+00
  0.00000000E+00  0.00000000E+00  0.00000000E+00
  0.00000000E+00  0.00000000E+00  0.00000000E+00
  0.00000000E+00  0.00000000E+00  0.00000000E+00
  0.00000000E+00  0.00000000E+00  0.00000000E+00
  0.00000000E+00  0.00000000E+00  0.00000000E+00
  0.00000000E+00  0.00000000E+00  0.00000000E+00
  0.00000000E+00  0.00000000E+00  0.00000000E+00
  0.00000000E+00  0.00000000E+00  0.00000000E+00
  0.00000000E+00  0.00000000E+00  0.00000000E+00
  0.00000000E+00  0.00000000E+00  0.00000000E+00
  0.00000000E+00  0.00000000E+00  0.00000000E+00
  0.00000000E+00  0.00000000E+00  0.00000000E+00
  0.00000000E+00  0.00000000E+00  0.00000000E+00
  0.00000000E+00  0.00000000E+00  0.00000000E+00
  0.00000000E+00  0.00000000E+00  0.00000000E+00
  0.00000000E+00  0.00000000E+00  0.00000000E+00
  0.00000000E+00  0.00000000E+00  0.00000000E+00
  0.00000000E+00  0.00000000E+00  0.00000000E+00
  0.00000000E+00  0.00000000E+00  0.00000000E+00
  0.00000000E+00  0.00000000E+00  0.00000000E+00
  0.00000000E+00  0.00000000E+00  0.00000000E+00
  0.00000000E+00  0.00000000E+00  0.00000000E+00
  0.00000000E+00  0.00000000E+00  0.00000000E+00
  0.00000000E+00  0.00000000E+00  0.00000000E+00
  0.00000000E+00  0.00000000E+00  0.00000000E+00
  0.00000000E+00  0.00000000E+00  0.00000000E+00
  0.00000000E+00  0.00000000E+00  0.00000000E+00
  0.00000000E+00  0.00000000E+00  0.00000000E+00
  0.00000000E+00  0.00000000E+00  0.00000000E+00
  0.00000000E+00  0.00000000E+00  0.00000000E+00
  0.00000000E+00  0.00000000E+00  0.00000000E+00
  0.00000000E+00  0.00000000E+00  0.00000000E+00
  0.00000000E+00  0.00000000E+00  0.00000000E+00
  0.00000000E+00  0.00000000E+00  0.00000000E+00
  0.00000000E+00  0.00000000E+00  0.00000000E+00
  0.00000000E+00  0.00000000E+00  0.00000000E+00
  0.00000000E+00  0.00000000E+00  0.00000000E+00
  0.00000000E+00  0.00000000E+00  0.00000000E+00
  0.00000000E+00  0.00000000E+00  0.00000000E+00
  0.00000000E+00  0.00000000E+00  0.00000000E+00
  0.00000000E+00  0.00000000E+00  0.00000000E+00
  0.00000000E+00  0.00000000E+00  0.00000000E+00
  0.00000000E+00  0.00000000E+00  0.00000000E+00
  0.00000000E+00  0.00000000E+00  0.00000000E+00
  0.00000000E+00  0.00000000E+00  0.00000000E+00
  0.00000000E+00  0.00000000E+00  0.00000000E+00
  0.00000000E+00  0.00000000E+00  0.00000000E+00
  0.00000000E+00  0.00000000E+00  0.00000000E+00
  0.00000000E+00  0.00000000E+00  0.00000000E+00
  0.00000000E+00  0.00000000E+00  0.00000000E+00
  0.00000000E+00  0.00000000E+00  0.00000000E+00
  0.00000000E+00  0.00000000E+00  0.00000000E+00
  0.00000000E+00  0.00000000E+00  0.00000000E+00
  0.00000000E+00  0.00000000E+00  0.00000000E+00
  0.00000000E+00  0.00000000E+00  0.00000000E+00
  0.00000000E+00  0.00000000E+00  0.00000000E+00
  0.00000000E+00  0.00000000E+00  0.00000000E+00
  0.00000000E+00  0.00000000E+00  0.00000000E+00
  0.00000000E+00  0.00000000E+00  0.00000000E+00
  0.00000000E+00  0.00000000E+00  0.00000000E+00
  0.00000000E+00  0.00000000E+00  0.00000000E+00
  0.00000000E+00  0.00000000E+00  0.00000000E+00
  0.00000000E+00  0.00000000E+00  0.00000000E+00
  0.00000000E+00  0.00000000E+00  0.00000000E+00
  0.00000000E+00  0.00000000E+00  0.00000000E+00
  0.00000000E+00  0.00000000E+00  0.00000000E+00
  0.00000000E+00  0.00000000E+00  0.00000000E+00
  0.00000000E+00  0.00000000E+00  0.00000000E+00
  0.00000000E+00  0.00000000E+00  0.00000000E+00
  0.00000000E+00  0.00000000E+00  0.00000000E+00
  0.00000000E+00  0.00000000E+00  0.00000000E+00
  0.00000000E+00  0.00000000E+00  0.00000000E+00
  0.00000000E+00  0.00000000E+00  0.00000000E+00
  0.00000000E+00  0.00000000E+00  0.00000000E+00
  0.00000000E+00  0.00000000E+00  0.00000000E+00
  0.00000000E+00  0.00000000E+00  0.00000000E+00
  0.00000000E+00  0.00000000E+00  0.00000000E+00
  0.00000000E+00  0.00000000E+00  0.00000000E+00
  0.00000000E+00  0.00000000E+00  0.00000000E+00
  0.00000000E+00  0.00000000E+00  0.00000000E+00
  0.00000000E+00  0.00000000E+00  0.00000000E+00
  0.00000000E+00  0.00000000E+00  0.00000000E+00
  0.00000000E+00  0.00000000E+00  0.00000000E+00
  0.00000000E+00  0.00000000E+00  0.00000000E+00
  0.00000000E+00  0.00000000E+00  0.00000000E+00
  0.00000000E+00  0.00000000E+00  0.00000000E+00
  0.00000000E+00  0.00000000E+00  0.00000000E+00
  0.00000000E+00  0.00000000E+00  0.00000000E+00
  0.00000000E+00  0.00000000E+00  0.00000000E+00
  0.00000000E+00  0.00000000E+00  0.00000000E+00
  0.00000000E+00  0.00000000E+00  0.00000000E+00
  0.00000000E+00  0.00000000E+00  0.00000000E+00
  0.00000000E+00  0.00000000E+00  0.00000000E+00
  0.00000000E+00  0.00000000E+00  0.00000000E+00
  0.00000000E+00  0.00000000E+00  0.00000000E+00
  0.00000000E+00  0.00000000E+00  0.00000000E+00
  0.00000000E+00  0.00000000E+00  0.00000000E+00
  0.00000000E+00  0.00000000E+00  0.00000000E+00
  0.00000000E+00  0.00000000E+00  0.00000000E+00
  0.00000000E+00  0.00000000E+00  0.00000000E+00
  0.00000000E+00  0.00000000E+00  0.00000000E+00
  0.00000000E+00  0.00000000E+00  0.00000000E+00
  0.00000000E+00  0.00000000E+00  0.00000000E+00
  0.00000000E+00  0.00000000E+00  0.00000000E+00
  0.00000000E+00  0.00000000E+00  0.00000000E+00
  0.00000000E+00  0.00000000E+00  0.00000000E+00
  0.00000000E+00  0.00000000E+00  0.00000000E+00
  0.00000000E+00  0.00000000E+00  0.00000000E+00
  0.00000000E+00  0.00000000E+00  0.00000000E+00
  0.00000000E+00  0.00000000E+00  0.00000000E+00
  0.00000000E+00  0.00000000E+00  0.00000000E+00
  0.00000000E+00  0.00000000E+00  0.00000000E+00
  0.00000000E+00  0.00000000E+00  0.00000000E+00
  0.00000000E+00  0.00000000E+00  0.00000000E+00
  0.00000000E+00  0.00000000E+00  0.00000000E+00
  0.00000000E+00  0.00000000E+00  0.00000000E+00
  0.00000000E+00  0.00000000E+00  0.00000000E+00
  0.00000000E+00  0.00000000E+00  0.00000000E+00
  0.00000000E+00  0.00000000E+00  0.00000000E+00
  0.00000000E+00  0.00000000E+00  0.00000000E+00
  0.00000000E+00  0.00000000E+00  0.00000000E+00
  0.00000000E+00  0.00000000E+00  0.00000000E+00
  0.00000000E+00  0.00000000E+00  0.00000000E+00
  0.00000000E+00  0.00000000E+00  0.00000000E+00
  0.00000000E+00  0.00000000E+00  0.00000000E+00
  0.00000000E+00  0.00000000E+00  0.00000000E+00
  0.00000000E+00  0.00000000E+00  0.00000000E+00
  0.00000000E+00  0.00000000E+00  0.00000000E+00
  0.00000000E+00  0.00000000E+00  0.00000000E+00
  0.00000000E+00  0.00000000E+00  0.00000000E+00
  0.00000000E+00  0.00000000E+00  0.00000000E+00
  0.00000000E+00  0.00000000E+00  0.00000000E+00
  0.00000000E+00  0.00000000E+00  0.00000000E+00
  0.00000000E+00  0.00000000E+00  0.00000000E+00
  0.00000000E+00  0.00000000E+00  0.00000000E+00
