RuN14                                   
   1.00000000000000     
    17.0990259999999985   -9.8721239999999995    0.0000000000000000
     0.0000000000000000   19.7442530000000005    0.0000000000000000
     0.0000000000000000    0.0000000000000000   20.0000000000000000
   H    C    N    Ru
     6   116    13     1
Selective dynamics
Direct
  0.4492163527136093  0.5003912833174319  0.1144656026019366   T   T   T
  0.5753804255182039  0.4701453765533385  0.1468979341223502   T   T   T
  0.6292863744294420  0.6454483976079424  0.1372348669051803   T   T   T
  0.6874965197410856  0.5495890827007873  0.2184524555330723   T   T   T
  0.6838197538016108  0.6321746199997567  0.2503690678287660   T   T   T
  0.7499315300108508  0.6450627732783131  0.1854036966625809   T   T   T
  0.5761716723940326  0.5228069068793166  0.1269249363052204   T   T   T
  0.6290300241138332  0.5920391706416687  0.1532484671143687   T   T   T
  0.6904642563418818  0.6049066800085803  0.2045170855247543   T   T   T
  0.0179674726534824  0.9774232774963920  0.9932086075667184   T   T   T
  0.1012785007328305  0.0188687359512021  0.9944662046228602   T   T   T
  0.1429051435055509  0.9772128802627411  0.9956382525736982   T   T   T
  0.2264245811874509  0.0192035649961942  0.9968181351461345   T   T   T
  0.2679035616824538  0.9769832538029257  0.9977385101007854   T   T   T
  0.3511849171591223  0.0189289574385318  0.9980765169868369   T   T   T
  0.3927997478762027  0.9767341787487019  0.9982627753891552   T   T   T
  0.4760688417444001  0.0191113976731628  0.9978845061123155   T   T   T
  0.5176418980126581  0.9768075518131364  0.9973443605939429   T   T   T
  0.6009712884289623  0.0193839603351227  0.9965835602918985   T   T   T
  0.6426193853469042  0.9771673429179497  0.9952124944148614   T   T   T
  0.7259521270319071  0.0192604202988091  0.9944604009363133   T   T   T
  0.7674769827771872  0.9773366029291144  0.9928215668099178   T   T   T
  0.8509848389365184  0.0193249389880366  0.9927494551416421   T   T   T
  0.8930048957972742  0.9779282929202395  0.9919382568064761   T   T   T
  0.9762113396783214  0.0193121614003588  0.9928346321216064   T   T   T
  0.0177043682891854  0.1026457825820356  0.9940966833631157   T   T   T
  0.1012190986581102  0.1441140849479718  0.9950358373015956   T   T   T
  0.1428422872449495  0.1024607632440489  0.9950638949119338   T   T   T
  0.2259270684525784  0.1442010432068674  0.9963433513672927   T   T   T
  0.2676755418774109  0.1026055235476254  0.9970628059104893   T   T   T
  0.3513865840054343  0.1449002168845254  0.9982042256476628   T   T   T
  0.3922637549166466  0.1024172410975514  0.9981872209974292   T   T   T
  0.4754937791607863  0.1454075941128729  0.9984811981875814   T   T   T
  0.5172945131073183  0.1030887305113563  0.9981274928113231   T   T   T
  0.6003324331641818  0.1455348018292507  0.9983251562982326   T   T   T
  0.6421380343295918  0.1031357099787905  0.9973436554763581   T   T   T
  0.7254185552349149  0.1449484948715479  0.9972724648385292   T   T   T
  0.7673207591823580  0.1029936731471857  0.9957992633176619   T   T   T
  0.8506745655676873  0.1445126755317868  0.9958371323773555   T   T   T
  0.8925059786562763  0.1027688351600374  0.9943579212061096   T   T   T
  0.9760101795834117  0.1442721295595126  0.9948979578640847   T   T   T
  0.0180351910565394  0.2277743490828749  0.9967586925821876   T   T   T
  0.1014409068559377  0.2689160718991107  0.9974053826557843   T   T   T
  0.1430447488168103  0.2272409282344218  0.9963772086160522   T   T   T
  0.2263541087822785  0.2686659964995793  0.9970714544246937   T   T   T
  0.2674281587469536  0.2274807134641765  0.9971366213987829   T   T   T
  0.3921868224238899  0.2278213166294226  0.9995609173999367   T   T   T
  0.5157660091950127  0.2281605172388387  0.9992322915125382   T   T   T
  0.5985277624019093  0.2720901461766133  0.0002869881733008   T   T   T
  0.6408982752695603  0.2293302157290533  0.9995060577568787   T   T   T
  0.7243125353675453  0.2707009060346197  0.9996964291490651   T   T   T
  0.7665690292773335  0.2285752771611408  0.9986297065025466   T   T   T
  0.8500682042564531  0.2697035976517437  0.9988851534487988   T   T   T
  0.8923535545159145  0.2280172693383637  0.9976144807776519   T   T   T
  0.9757854850693750  0.2692299426169132  0.9981198798197470   T   T   T
  0.0178311441756725  0.3525887267909707  0.0000003539547947   T   T   T
  0.1012907275977427  0.3936044187035665  0.0008347920727171   T   T   T
  0.1439435561763494  0.3526534018103455  0.9996148542138020   T   T   T
  0.2268272332676305  0.3933537700053347  0.0004565335677671   T   T   T
  0.3498120760532952  0.3912382803718804  0.0034406065913259   T   T   T
  0.3900217153485617  0.3497537118215547  0.0087955539957330   T   T   T
  0.5133248831116775  0.3534378020099948  0.0101643937636656   T   T   T
  0.6394225722935140  0.3551606144603289  0.0013483132422508   T   T   T
  0.7224193436910322  0.3963740215281888  0.0010090373154068   T   T   T
  0.7653643427654931  0.3541271975741178  0.0005309543342012   T   T   T
  0.8491815607846044  0.3946536712572212  0.0007752844396363   T   T   T
  0.8916667060067606  0.3530043235501933  0.0002320016949905   T   T   T
  0.9754752298925320  0.3941293279547853  0.0007684287685255   T   T   T
  0.0179501447864982  0.4773739952872081  0.0015853747672112   T   T   T
  0.1018085768602946  0.5185170888764650  0.0021351333189826   T   T   T
  0.1442165007316554  0.4767548606434248  0.0022524769449265   T   T   T
  0.2270756395304743  0.5170313608183529  0.0032521412156513   T   T   T
  0.3535245452831460  0.5148233237389855  0.0042446173278401   T   T   T
  0.6397792399309729  0.4814223596142685  0.9949554706613065   T   T   T
  0.7661924154265053  0.4793731483893378  0.0007633334263025   T   T   T
  0.8492410896282506  0.5195753761635993  0.0006075465406604   T   T   T
  0.8915952325657247  0.4777591750038918  0.0011390966325297   T   T   T
  0.9754932144240447  0.5189017844035292  0.0013655487070707   T   T   T
  0.0180442578338150  0.6021512889919391  0.0008279981601772   T   T   T
  0.1018122301438865  0.6433555673502969  0.0011238623755391   T   T   T
  0.1441747982475655  0.6016184069826914  0.0020918025577447   T   T   T
  0.2278393232935222  0.6422017845266211  0.0025542604583605   T   T   T
  0.2706334051844986  0.5998940984814166  0.0036835670871846   T   T   T
  0.3535666095233632  0.6408744159275416  0.0043968083601407   T   T   T
  0.4805836569755272  0.6422230018668290  0.0075302125596863   T   T   T
  0.6446600958833969  0.6043389072190536  0.9929687474613833   T   T   T
  0.7669886666775245  0.6025730212537513  0.9960922063152575   T   T   T
  0.8497739943234197  0.6436017853192730  0.9967932124078362   T   T   T
  0.8923970088511153  0.6026119932018220  0.9992938676854133   T   T   T
  0.9758535835213046  0.6437277071412196  0.9994152501277934   T   T   T
  0.0180637165780307  0.7270828828141549  0.9979262125991014   T   T   T
  0.1014158082646418  0.7683908538649168  0.9985754386707277   T   T   T
  0.1435508743953668  0.7265754378489002  0.0002013563445241   T   T   T
  0.2270334588964702  0.7677309520983673  0.0004727383911375   T   T   T
  0.2690810620972393  0.7255608670984058  0.0016516129775333   T   T   T
  0.3525719406232746  0.7667712567355160  0.0010133343340590   T   T   T
  0.3946397183985703  0.7241059549048038  0.0017554822109511   T   T   T
  0.4776062502331058  0.7674705917444519  0.9985917776472728   T   T   T
  0.6010956373703228  0.7671392370081460  0.9942366385872408   T   T   T
  0.7271900873149588  0.7692827506382064  0.9902148416371113   T   T   T
  0.7689801998822280  0.7284017745959069  0.9908385774327055   T   T   T
  0.8512455791714185  0.7691489084883094  0.9921759738703081   T   T   T
  0.8927976022778783  0.7273289296424597  0.9945939330819475   T   T   T
  0.9758953746620121  0.7685359396915695  0.9956890087790974   T   T   T
  0.0179735292826240  0.8521989143477362  0.9947276012227918   T   T   T
  0.1012983433540602  0.8936349199026459  0.9959376476738859   T   T   T
  0.1431127486596328  0.8518502045029049  0.9975851852101058   T   T   T
  0.2265028876275058  0.8934150200003927  0.9982328240722995   T   T   T
  0.2683229567145039  0.8513372484759893  0.9993332903683247   T   T   T
  0.3515712000831907  0.8929647434982446  0.9989897300792947   T   T   T
  0.3933150721922177  0.8506170325901986  0.9992747689296432   T   T   T
  0.4763989882672020  0.8927821021585841  0.9978161980669142   T   T   T
  0.5181028239736376  0.8503730084198032  0.9969316950580449   T   T   T
  0.6016606564315131  0.8936133685800817  0.9949824923476112   T   T   T
  0.6424959537621020  0.8513848221347194  0.9934094789944928   T   T   T
  0.7259757048729403  0.8935172212061512  0.9918996861653548   T   T   T
  0.7685238830823217  0.8526616785328806  0.9905291638191831   T   T   T
  0.8515802346863586  0.8944835588758779  0.9909879907437762   T   T   T
  0.8930236956627953  0.8527204871268419  0.9918188730342991   T   T   T
  0.9763898566347505  0.8940368703694966  0.9930757768041965   T   T   T
  0.6441687093893294  0.7283577532684063  0.9922794132112182   T   T   T
  0.5264026869602946  0.6068111715885480  0.0226096429896691   T   T   T
  0.3502985900188910  0.2674598677724770  0.9989000922606194   T   T   T
  0.4743673176832905  0.2706716280390979 -0.0001895617035037   T   T   T
  0.2666367374688105  0.3516454682798922  0.9978877266807303   T   T   T
  0.4683218595589658  0.3856244198415281  0.0253850545307917   T   T   T
  0.5959459930203189  0.3978138962590141  0.0025414580564912   T   T   T
  0.2693175023566555  0.4754233121070328  0.0030258466921373   T   T   T
  0.3887701719022514  0.4718926367118518  0.0063930617219958   T   T   T
  0.6044873347781863  0.5259876028628037  0.9936179532344271   T   T   T
  0.7239401743820447  0.5208554457945235  0.9994989824326499   T   T   T
  0.3961458303027821  0.5983535847753867  0.0071372609730375   T   T   T
  0.6063358949815709  0.6467403477292840  0.9992144658970196   T   T   T
  0.7272430907458153  0.6450894551964851  0.9908516538385137   T   T   T
  0.5180731728367660  0.7250219285211593  0.9973480519502532   T   T   T
  0.4986409551254986  0.5027941166749605  0.0486723237808568   T   T   T
 
  0.00000000E+00  0.00000000E+00  0.00000000E+00
  0.00000000E+00  0.00000000E+00  0.00000000E+00
  0.00000000E+00  0.00000000E+00  0.00000000E+00
  0.00000000E+00  0.00000000E+00  0.00000000E+00
  0.00000000E+00  0.00000000E+00  0.00000000E+00
  0.00000000E+00  0.00000000E+00  0.00000000E+00
  0.00000000E+00  0.00000000E+00  0.00000000E+00
  0.00000000E+00  0.00000000E+00  0.00000000E+00
  0.00000000E+00  0.00000000E+00  0.00000000E+00
  0.00000000E+00  0.00000000E+00  0.00000000E+00
  0.00000000E+00  0.00000000E+00  0.00000000E+00
  0.00000000E+00  0.00000000E+00  0.00000000E+00
  0.00000000E+00  0.00000000E+00  0.00000000E+00
  0.00000000E+00  0.00000000E+00  0.00000000E+00
  0.00000000E+00  0.00000000E+00  0.00000000E+00
  0.00000000E+00  0.00000000E+00  0.00000000E+00
  0.00000000E+00  0.00000000E+00  0.00000000E+00
  0.00000000E+00  0.00000000E+00  0.00000000E+00
  0.00000000E+00  0.00000000E+00  0.00000000E+00
  0.00000000E+00  0.00000000E+00  0.00000000E+00
  0.00000000E+00  0.00000000E+00  0.00000000E+00
  0.00000000E+00  0.00000000E+00  0.00000000E+00
  0.00000000E+00  0.00000000E+00  0.00000000E+00
  0.00000000E+00  0.00000000E+00  0.00000000E+00
  0.00000000E+00  0.00000000E+00  0.00000000E+00
  0.00000000E+00  0.00000000E+00  0.00000000E+00
  0.00000000E+00  0.00000000E+00  0.00000000E+00
  0.00000000E+00  0.00000000E+00  0.00000000E+00
  0.00000000E+00  0.00000000E+00  0.00000000E+00
  0.00000000E+00  0.00000000E+00  0.00000000E+00
  0.00000000E+00  0.00000000E+00  0.00000000E+00
  0.00000000E+00  0.00000000E+00  0.00000000E+00
  0.00000000E+00  0.00000000E+00  0.00000000E+00
  0.00000000E+00  0.00000000E+00  0.00000000E+00
  0.00000000E+00  0.00000000E+00  0.00000000E+00
  0.00000000E+00  0.00000000E+00  0.00000000E+00
  0.00000000E+00  0.00000000E+00  0.00000000E+00
  0.00000000E+00  0.00000000E+00  0.00000000E+00
  0.00000000E+00  0.00000000E+00  0.00000000E+00
  0.00000000E+00  0.00000000E+00  0.00000000E+00
  0.00000000E+00  0.00000000E+00  0.00000000E+00
  0.00000000E+00  0.00000000E+00  0.00000000E+00
  0.00000000E+00  0.00000000E+00  0.00000000E+00
  0.00000000E+00  0.00000000E+00  0.00000000E+00
  0.00000000E+00  0.00000000E+00  0.00000000E+00
  0.00000000E+00  0.00000000E+00  0.00000000E+00
  0.00000000E+00  0.00000000E+00  0.00000000E+00
  0.00000000E+00  0.00000000E+00  0.00000000E+00
  0.00000000E+00  0.00000000E+00  0.00000000E+00
  0.00000000E+00  0.00000000E+00  0.00000000E+00
  0.00000000E+00  0.00000000E+00  0.00000000E+00
  0.00000000E+00  0.00000000E+00  0.00000000E+00
  0.00000000E+00  0.00000000E+00  0.00000000E+00
  0.00000000E+00  0.00000000E+00  0.00000000E+00
  0.00000000E+00  0.00000000E+00  0.00000000E+00
  0.00000000E+00  0.00000000E+00  0.00000000E+00
  0.00000000E+00  0.00000000E+00  0.00000000E+00
  0.00000000E+00  0.00000000E+00  0.00000000E+00
  0.00000000E+00  0.00000000E+00  0.00000000E+00
  0.00000000E+00  0.00000000E+00  0.00000000E+00
  0.00000000E+00  0.00000000E+00  0.00000000E+00
  0.00000000E+00  0.00000000E+00  0.00000000E+00
  0.00000000E+00  0.00000000E+00  0.00000000E+00
  0.00000000E+00  0.00000000E+00  0.00000000E+00
  0.00000000E+00  0.00000000E+00  0.00000000E+00
  0.00000000E+00  0.00000000E+00  0.00000000E+00
  0.00000000E+00  0.00000000E+00  0.00000000E+00
  0.00000000E+00  0.00000000E+00  0.00000000E+00
  0.00000000E+00  0.00000000E+00  0.00000000E+00
  0.00000000E+00  0.00000000E+00  0.00000000E+00
  0.00000000E+00  0.00000000E+00  0.00000000E+00
  0.00000000E+00  0.00000000E+00  0.00000000E+00
  0.00000000E+00  0.00000000E+00  0.00000000E+00
  0.00000000E+00  0.00000000E+00  0.00000000E+00
  0.00000000E+00  0.00000000E+00  0.00000000E+00
  0.00000000E+00  0.00000000E+00  0.00000000E+00
  0.00000000E+00  0.00000000E+00  0.00000000E+00
  0.00000000E+00  0.00000000E+00  0.00000000E+00
  0.00000000E+00  0.00000000E+00  0.00000000E+00
  0.00000000E+00  0.00000000E+00  0.00000000E+00
  0.00000000E+00  0.00000000E+00  0.00000000E+00
  0.00000000E+00  0.00000000E+00  0.00000000E+00
  0.00000000E+00  0.00000000E+00  0.00000000E+00
  0.00000000E+00  0.00000000E+00  0.00000000E+00
  0.00000000E+00  0.00000000E+00  0.00000000E+00
  0.00000000E+00  0.00000000E+00  0.00000000E+00
  0.00000000E+00  0.00000000E+00  0.00000000E+00
  0.00000000E+00  0.00000000E+00  0.00000000E+00
  0.00000000E+00  0.00000000E+00  0.00000000E+00
  0.00000000E+00  0.00000000E+00  0.00000000E+00
  0.00000000E+00  0.00000000E+00  0.00000000E+00
  0.00000000E+00  0.00000000E+00  0.00000000E+00
  0.00000000E+00  0.00000000E+00  0.00000000E+00
  0.00000000E+00  0.00000000E+00  0.00000000E+00
  0.00000000E+00  0.00000000E+00  0.00000000E+00
  0.00000000E+00  0.00000000E+00  0.00000000E+00
  0.00000000E+00  0.00000000E+00  0.00000000E+00
  0.00000000E+00  0.00000000E+00  0.00000000E+00
  0.00000000E+00  0.00000000E+00  0.00000000E+00
  0.00000000E+00  0.00000000E+00  0.00000000E+00
  0.00000000E+00  0.00000000E+00  0.00000000E+00
  0.00000000E+00  0.00000000E+00  0.00000000E+00
  0.00000000E+00  0.00000000E+00  0.00000000E+00
  0.00000000E+00  0.00000000E+00  0.00000000E+00
  0.00000000E+00  0.00000000E+00  0.00000000E+00
  0.00000000E+00  0.00000000E+00  0.00000000E+00
  0.00000000E+00  0.00000000E+00  0.00000000E+00
  0.00000000E+00  0.00000000E+00  0.00000000E+00
  0.00000000E+00  0.00000000E+00  0.00000000E+00
  0.00000000E+00  0.00000000E+00  0.00000000E+00
  0.00000000E+00  0.00000000E+00  0.00000000E+00
  0.00000000E+00  0.00000000E+00  0.00000000E+00
  0.00000000E+00  0.00000000E+00  0.00000000E+00
  0.00000000E+00  0.00000000E+00  0.00000000E+00
  0.00000000E+00  0.00000000E+00  0.00000000E+00
  0.00000000E+00  0.00000000E+00  0.00000000E+00
  0.00000000E+00  0.00000000E+00  0.00000000E+00
  0.00000000E+00  0.00000000E+00  0.00000000E+00
  0.00000000E+00  0.00000000E+00  0.00000000E+00
  0.00000000E+00  0.00000000E+00  0.00000000E+00
  0.00000000E+00  0.00000000E+00  0.00000000E+00
  0.00000000E+00  0.00000000E+00  0.00000000E+00
  0.00000000E+00  0.00000000E+00  0.00000000E+00
  0.00000000E+00  0.00000000E+00  0.00000000E+00
  0.00000000E+00  0.00000000E+00  0.00000000E+00
  0.00000000E+00  0.00000000E+00  0.00000000E+00
  0.00000000E+00  0.00000000E+00  0.00000000E+00
  0.00000000E+00  0.00000000E+00  0.00000000E+00
  0.00000000E+00  0.00000000E+00  0.00000000E+00
  0.00000000E+00  0.00000000E+00  0.00000000E+00
  0.00000000E+00  0.00000000E+00  0.00000000E+00
  0.00000000E+00  0.00000000E+00  0.00000000E+00
  0.00000000E+00  0.00000000E+00  0.00000000E+00
  0.00000000E+00  0.00000000E+00  0.00000000E+00
  0.00000000E+00  0.00000000E+00  0.00000000E+00
  0.00000000E+00  0.00000000E+00  0.00000000E+00
