RuN14                                   
   1.00000000000000     
    17.0990259999999985   -9.8721239999999995    0.0000000000000000
     0.0000000000000000   19.7442530000000005    0.0000000000000000
     0.0000000000000000    0.0000000000000000   20.0000000000000000
   H    C    N    Ru
     6   116    13     1
Selective dynamics
Direct
  0.3801289410618202  0.3920935932002510  0.1394208314116993   T   T   T
  0.5739561851640338  0.5267649004290965  0.1124827409379932   T   T   T
  0.3961952958709291  0.5378568030815912  0.1348015017980003   T   T   T
  0.5479272129145600  0.5721467053704047  0.2093980844802233   T   T   T
  0.4708694082387599  0.5862451762229881  0.2407021267404419   T   T   T
  0.5310982822799448  0.6454550105715336  0.1740303531243867   T   T   T
  0.4304936284916787  0.4511779127381420  0.1344081909668143   T   T   T
  0.4449156324170481  0.5267766929985885  0.1457313391419975   T   T   T
  0.5025976574870940  0.5860197850878698  0.1952766475140286   T   T   T
  0.0212311418523740  0.9792578810613258  0.9963511729038640   T   T   T
  0.1045752607577451  0.0207537172453086  0.9967619932715277   T   T   T
  0.1461642150059963  0.9790940720183330  0.9975219022858045   T   T   T
  0.2297338127466130  0.0211444092000966  0.9980864866426159   T   T   T
  0.2711440026241526  0.9788750964136118  0.9990533831193280   T   T   T
  0.3545136543021071  0.0208669728949818  0.9993806474486537   T   T   T
  0.3961102694072335  0.9786077340861772  0.9998651980259006   T   T   T
  0.4793468912629058  0.0208666864067732  0.9996773172496957   T   T   T
  0.5209000438618514  0.9784606136554327  0.9995797020028991   T   T   T
  0.6042415944096546  0.0210782327901816  0.9991205264717673   T   T   T
  0.6458813513446815  0.9788409274120135  0.9983373910948511   T   T   T
  0.7292755934550564  0.0210197404932615  0.9977539577685380   T   T   T
  0.7707977691251314  0.9791487976882809  0.9966791055176580   T   T   T
  0.8543127600710838  0.0211593594316559  0.9964259415638326   T   T   T
  0.8963124923166138  0.9797562181220959  0.9958239010128583   T   T   T
  0.9795263845192235  0.0211976951628446  0.9961841966620044   T   T   T
  0.0211207534107010  0.1045829927543888  0.9964097444006826   T   T   T
  0.1046974399060264  0.1461118689636063  0.9961485549392753   T   T   T
  0.1462610765705138  0.1044299485905001  0.9964301359890483   T   T   T
  0.2293675065066261  0.1461965414315312  0.9967064874474837   T   T   T
  0.2709552158343217  0.1045602641972719  0.9977204012384926   T   T   T
  0.3548028843544468  0.1470547018468952  0.9986857697975730   T   T   T
  0.3956260761417207  0.1043182910502380  0.9992088152994979   T   T   T
  0.4787812577244225  0.1470570270770600  0.9995919799096245   T   T   T
  0.5205732161420948  0.1047766753542833  0.9996640572445443   T   T   T
  0.6036373443947056  0.1472681963808154 -0.0000047311679179   T   T   T
  0.6454227488149411  0.1048554821731019  0.9995068160474316   T   T   T
  0.7287027521587152  0.1467005805677950  0.9993797115732834   T   T   T
  0.7706476869919405  0.1047632029115487  0.9983997158028726   T   T   T
  0.8540030480187317  0.1463424308202553  0.9980789313953887   T   T   T
  0.8958802153711172  0.1046440605074304  0.9971038483940478   T   T   T
  0.9794373309495246  0.1462017022037191  0.9968232009019004   T   T   T
  0.0215475240165390  0.2297785686348362  0.9973189131595347   T   T   T
  0.1049131019048300  0.2708989135451726  0.9966288013120760   T   T   T
  0.1465811769081664  0.2293098631508151  0.9955916228891152   T   T   T
  0.2299964807073980  0.2707572303522461  0.9946533946801278   T   T   T
  0.2709288227726231  0.2296208441082790  0.9959193681349225   T   T   T
  0.3956664331067191  0.2298631961972689  0.9994108056730122   T   T   T
  0.5191443897540520  0.2299029217548636  0.0002442740424507   T   T   T
  0.6018262783533086  0.2738106169575449  0.0012319765162597   T   T   T
  0.6441748460605180  0.2310116512853809  0.0007626985757766   T   T   T
  0.7275962598264325  0.2724288434904376  0.0008811784000877   T   T   T
  0.7698630821754484  0.2303223815772450  0.0001126496424149   T   T   T
  0.8533823056414372  0.2715488190692757  0.9999801597646361   T   T   T
  0.8957421459388756  0.2299048412796178  0.9989209102020518   T   T   T
  0.9791373033442453  0.2711304450426185  0.9987223362315869   T   T   T
  0.0212954577150134  0.3545507097357907  0.0000927540018684   T   T   T
  0.1045977921535354  0.3955681467179527  0.0005435445526891   T   T   T
  0.1476805294645853  0.3548246303406255  0.9985252373744125   T   T   T
  0.2301140606244436  0.3953351802185945  0.9983887423918018   T   T   T
  0.3536909562019355  0.3943640334382700  0.9975962675052816   T   T   T
  0.3942379606853960  0.3529632027890300  0.0042521045617108   T   T   T
  0.5168958024991213  0.3555827242963621  0.0085908712598955   T   T   T
  0.6428537052924723  0.3568800419943144  0.0021570601402230   T   T   T
  0.7257854665509084  0.3981452396730624  0.0019070513333852   T   T   T
  0.7687028258834846  0.3558541249004235  0.0013994661580607   T   T   T
  0.8525075287652237  0.3965125999972041  0.0013236054723023   T   T   T
  0.8950121591141169  0.3548505524467684  0.0007450487598755   T   T   T
  0.9788072000371189  0.3960478593539107  0.0008995366442930   T   T   T
  0.0211653663303005  0.4792631668444945  0.0016082111114923   T   T   T
  0.1050876186196385  0.5204788202243936  0.0022183411844735   T   T   T
  0.1474805214174985  0.4786928635511392  0.0021071204193032   T   T   T
  0.2302960008775283  0.5190798748229077  0.0031406494930592   T   T   T
  0.3565935990300053  0.5167192680364635  0.0016410387659784   T   T   T
  0.6427191972813457  0.4829522049085172  0.9991162468660865   T   T   T
  0.7692687152143979  0.4809331079836999  0.0018579908269004   T   T   T
  0.8523411957907024  0.5213739067989653  0.0013752215993900   T   T   T
  0.8947695809719366  0.4795928731461092  0.0015119528706085   T   T   T
  0.9787216294214525  0.5207853747849502  0.0015296779433677   T   T   T
  0.0212221812085901  0.6039985765459063  0.0012508714237707   T   T   T
  0.1050304373027655  0.6452674205253007  0.0016614063404098   T   T   T
  0.1474285394527730  0.6035361456453311  0.0025076530624227   T   T   T
  0.2311485141011715  0.6441873067708481  0.0032690845355101   T   T   T
  0.2739109196312873  0.6018160186355570  0.0041514099715963   T   T   T
  0.3569318605619333  0.6427350869739850  0.0051669678747646   T   T   T
  0.4836516759884510  0.6428091915065159  0.0117688623029254   T   T   T
  0.6477364348912843  0.6061587257941092  0.9980451944872955   T   T   T
  0.7699065774408583  0.6041730919731256  0.9981246410386617   T   T   T
  0.8526235954749442  0.6452091338695948  0.9983339642786813   T   T   T
  0.8954848552756568  0.6043917052985972  0.0002802866389247   T   T   T
  0.9789578605274255  0.6455403777770556  0.0002668366462213   T   T   T
  0.0212282369908953  0.7289105293619188  0.9991912296968600   T   T   T
  0.1046361809807653  0.7702719224073581  0.9997897646683874   T   T   T
  0.1467759393281148  0.7284666982474840  0.0011196862200477   T   T   T
  0.2303143060604614  0.7697064999615516  0.0016106075848673   T   T   T
  0.2724241956841397  0.7275220221377743  0.0028202718682835   T   T   T
  0.3558539879878178  0.7686629010639494  0.0027559459470906   T   T   T
  0.3979368393622463  0.7258371860020739  0.0036696463583137   T   T   T
  0.4809537085258159  0.7690118118346806  0.0015353666040146   T   T   T
  0.6043034342426640  0.7687128375148147  0.9983733499417268   T   T   T
  0.7302499090742338  0.7709924405011939  0.9946050105666875   T   T   T
  0.7719982793680313  0.7302358830291636  0.9942865904372937   T   T   T
  0.8542568390518798  0.7708473723626883  0.9951787817018687   T   T   T
  0.8958348829264887  0.7290290489064177  0.9966411614387576   T   T   T
  0.9789635328241847  0.7702852458105732  0.9975640078022875   T   T   T
  0.0211721523575875  0.8540229743766764  0.9971096438489095   T   T   T
  0.1045199602199792  0.8955029702966365  0.9978829551023910   T   T   T
  0.1463518926319320  0.8537283471358982  0.9990964348192685   T   T   T
  0.2297632214743311  0.8953767476415351  0.9996337842527435   T   T   T
  0.2715932174674660  0.8532370106866179  0.0007196617523870   T   T   T
  0.3548558234430509  0.8948233738793494  0.0006389547873205   T   T   T
  0.3965601492456030  0.8524323022113608  0.0012427816015902   T   T   T
  0.4796753211935142  0.8945240239956055  0.0001612823092778   T   T   T
  0.5213270847444053  0.8520136241289682  0.9998672780165252   T   T   T
  0.6048914927360801  0.8952744954291517  0.9983370380359291   T   T   T
  0.6457528590946583  0.8530191491031132  0.9972865261330610   T   T   T
  0.7292697115276354  0.8952842413658073  0.9961028287161986   T   T   T
  0.7717427170962904  0.8544720301136530  0.9948994805209725   T   T   T
  0.8547989648466335  0.8962591708496906  0.9950986838045155   T   T   T
  0.8961629661448182  0.8544465147698662  0.9953938533185938   T   T   T
  0.9796031819657428  0.8958572842805425  0.9962481624185340   T   T   T
  0.6473140651417651  0.7300418418205969  0.9970676347185904   T   T   T
  0.5291410451811754  0.6077105733804747  0.0262540490244288   T   T   T
  0.3540486896007069  0.2699824674217392  0.9971460814234474   T   T   T
  0.4778145523716939  0.2722454109503379  0.0006364854821759   T   T   T
  0.2705205084726419  0.3538318589192038  0.9928328893359728   T   T   T
  0.4726994491962384  0.3892086747835781  0.0191692199267551   T   T   T
  0.5994689960379501  0.3998330065592470  0.0030517300720404   T   T   T
  0.2729205202608497  0.4777547015047065  0.0024747679441505   T   T   T
  0.3923317144053592  0.4744632925361999  0.9989424873329326   T   T   T
  0.6066471805642857  0.5277770127102410  0.9994227484800544   T   T   T
  0.7264035011824288  0.5222526765691107  0.0012164888307302   T   T   T
  0.3994711641636846  0.5998510222851881  0.0064832441424013   T   T   T
  0.6094683562997920  0.6480821624387277  0.0058111979192018   T   T   T
  0.7297555306633547  0.6466395661264364  0.9935605235951489   T   T   T
  0.5214069883339311  0.7267086159685892  0.0008562560474278   T   T   T
  0.5023829293457575  0.5018715339022805  0.0610793453805072   T   T   T
 
  0.00000000E+00  0.00000000E+00  0.00000000E+00
  0.00000000E+00  0.00000000E+00  0.00000000E+00
  0.00000000E+00  0.00000000E+00  0.00000000E+00
  0.00000000E+00  0.00000000E+00  0.00000000E+00
  0.00000000E+00  0.00000000E+00  0.00000000E+00
  0.00000000E+00  0.00000000E+00  0.00000000E+00
  0.00000000E+00  0.00000000E+00  0.00000000E+00
  0.00000000E+00  0.00000000E+00  0.00000000E+00
  0.00000000E+00  0.00000000E+00  0.00000000E+00
  0.00000000E+00  0.00000000E+00  0.00000000E+00
  0.00000000E+00  0.00000000E+00  0.00000000E+00
  0.00000000E+00  0.00000000E+00  0.00000000E+00
  0.00000000E+00  0.00000000E+00  0.00000000E+00
  0.00000000E+00  0.00000000E+00  0.00000000E+00
  0.00000000E+00  0.00000000E+00  0.00000000E+00
  0.00000000E+00  0.00000000E+00  0.00000000E+00
  0.00000000E+00  0.00000000E+00  0.00000000E+00
  0.00000000E+00  0.00000000E+00  0.00000000E+00
  0.00000000E+00  0.00000000E+00  0.00000000E+00
  0.00000000E+00  0.00000000E+00  0.00000000E+00
  0.00000000E+00  0.00000000E+00  0.00000000E+00
  0.00000000E+00  0.00000000E+00  0.00000000E+00
  0.00000000E+00  0.00000000E+00  0.00000000E+00
  0.00000000E+00  0.00000000E+00  0.00000000E+00
  0.00000000E+00  0.00000000E+00  0.00000000E+00
  0.00000000E+00  0.00000000E+00  0.00000000E+00
  0.00000000E+00  0.00000000E+00  0.00000000E+00
  0.00000000E+00  0.00000000E+00  0.00000000E+00
  0.00000000E+00  0.00000000E+00  0.00000000E+00
  0.00000000E+00  0.00000000E+00  0.00000000E+00
  0.00000000E+00  0.00000000E+00  0.00000000E+00
  0.00000000E+00  0.00000000E+00  0.00000000E+00
  0.00000000E+00  0.00000000E+00  0.00000000E+00
  0.00000000E+00  0.00000000E+00  0.00000000E+00
  0.00000000E+00  0.00000000E+00  0.00000000E+00
  0.00000000E+00  0.00000000E+00  0.00000000E+00
  0.00000000E+00  0.00000000E+00  0.00000000E+00
  0.00000000E+00  0.00000000E+00  0.00000000E+00
  0.00000000E+00  0.00000000E+00  0.00000000E+00
  0.00000000E+00  0.00000000E+00  0.00000000E+00
  0.00000000E+00  0.00000000E+00  0.00000000E+00
  0.00000000E+00  0.00000000E+00  0.00000000E+00
  0.00000000E+00  0.00000000E+00  0.00000000E+00
  0.00000000E+00  0.00000000E+00  0.00000000E+00
  0.00000000E+00  0.00000000E+00  0.00000000E+00
  0.00000000E+00  0.00000000E+00  0.00000000E+00
  0.00000000E+00  0.00000000E+00  0.00000000E+00
  0.00000000E+00  0.00000000E+00  0.00000000E+00
  0.00000000E+00  0.00000000E+00  0.00000000E+00
  0.00000000E+00  0.00000000E+00  0.00000000E+00
  0.00000000E+00  0.00000000E+00  0.00000000E+00
  0.00000000E+00  0.00000000E+00  0.00000000E+00
  0.00000000E+00  0.00000000E+00  0.00000000E+00
  0.00000000E+00  0.00000000E+00  0.00000000E+00
  0.00000000E+00  0.00000000E+00  0.00000000E+00
  0.00000000E+00  0.00000000E+00  0.00000000E+00
  0.00000000E+00  0.00000000E+00  0.00000000E+00
  0.00000000E+00  0.00000000E+00  0.00000000E+00
  0.00000000E+00  0.00000000E+00  0.00000000E+00
  0.00000000E+00  0.00000000E+00  0.00000000E+00
  0.00000000E+00  0.00000000E+00  0.00000000E+00
  0.00000000E+00  0.00000000E+00  0.00000000E+00
  0.00000000E+00  0.00000000E+00  0.00000000E+00
  0.00000000E+00  0.00000000E+00  0.00000000E+00
  0.00000000E+00  0.00000000E+00  0.00000000E+00
  0.00000000E+00  0.00000000E+00  0.00000000E+00
  0.00000000E+00  0.00000000E+00  0.00000000E+00
  0.00000000E+00  0.00000000E+00  0.00000000E+00
  0.00000000E+00  0.00000000E+00  0.00000000E+00
  0.00000000E+00  0.00000000E+00  0.00000000E+00
  0.00000000E+00  0.00000000E+00  0.00000000E+00
  0.00000000E+00  0.00000000E+00  0.00000000E+00
  0.00000000E+00  0.00000000E+00  0.00000000E+00
  0.00000000E+00  0.00000000E+00  0.00000000E+00
  0.00000000E+00  0.00000000E+00  0.00000000E+00
  0.00000000E+00  0.00000000E+00  0.00000000E+00
  0.00000000E+00  0.00000000E+00  0.00000000E+00
  0.00000000E+00  0.00000000E+00  0.00000000E+00
  0.00000000E+00  0.00000000E+00  0.00000000E+00
  0.00000000E+00  0.00000000E+00  0.00000000E+00
  0.00000000E+00  0.00000000E+00  0.00000000E+00
  0.00000000E+00  0.00000000E+00  0.00000000E+00
  0.00000000E+00  0.00000000E+00  0.00000000E+00
  0.00000000E+00  0.00000000E+00  0.00000000E+00
  0.00000000E+00  0.00000000E+00  0.00000000E+00
  0.00000000E+00  0.00000000E+00  0.00000000E+00
  0.00000000E+00  0.00000000E+00  0.00000000E+00
  0.00000000E+00  0.00000000E+00  0.00000000E+00
  0.00000000E+00  0.00000000E+00  0.00000000E+00
  0.00000000E+00  0.00000000E+00  0.00000000E+00
  0.00000000E+00  0.00000000E+00  0.00000000E+00
  0.00000000E+00  0.00000000E+00  0.00000000E+00
  0.00000000E+00  0.00000000E+00  0.00000000E+00
  0.00000000E+00  0.00000000E+00  0.00000000E+00
  0.00000000E+00  0.00000000E+00  0.00000000E+00
  0.00000000E+00  0.00000000E+00  0.00000000E+00
  0.00000000E+00  0.00000000E+00  0.00000000E+00
  0.00000000E+00  0.00000000E+00  0.00000000E+00
  0.00000000E+00  0.00000000E+00  0.00000000E+00
  0.00000000E+00  0.00000000E+00  0.00000000E+00
  0.00000000E+00  0.00000000E+00  0.00000000E+00
  0.00000000E+00  0.00000000E+00  0.00000000E+00
  0.00000000E+00  0.00000000E+00  0.00000000E+00
  0.00000000E+00  0.00000000E+00  0.00000000E+00
  0.00000000E+00  0.00000000E+00  0.00000000E+00
  0.00000000E+00  0.00000000E+00  0.00000000E+00
  0.00000000E+00  0.00000000E+00  0.00000000E+00
  0.00000000E+00  0.00000000E+00  0.00000000E+00
  0.00000000E+00  0.00000000E+00  0.00000000E+00
  0.00000000E+00  0.00000000E+00  0.00000000E+00
  0.00000000E+00  0.00000000E+00  0.00000000E+00
  0.00000000E+00  0.00000000E+00  0.00000000E+00
  0.00000000E+00  0.00000000E+00  0.00000000E+00
  0.00000000E+00  0.00000000E+00  0.00000000E+00
  0.00000000E+00  0.00000000E+00  0.00000000E+00
  0.00000000E+00  0.00000000E+00  0.00000000E+00
  0.00000000E+00  0.00000000E+00  0.00000000E+00
  0.00000000E+00  0.00000000E+00  0.00000000E+00
  0.00000000E+00  0.00000000E+00  0.00000000E+00
  0.00000000E+00  0.00000000E+00  0.00000000E+00
  0.00000000E+00  0.00000000E+00  0.00000000E+00
  0.00000000E+00  0.00000000E+00  0.00000000E+00
  0.00000000E+00  0.00000000E+00  0.00000000E+00
  0.00000000E+00  0.00000000E+00  0.00000000E+00
  0.00000000E+00  0.00000000E+00  0.00000000E+00
  0.00000000E+00  0.00000000E+00  0.00000000E+00
  0.00000000E+00  0.00000000E+00  0.00000000E+00
  0.00000000E+00  0.00000000E+00  0.00000000E+00
  0.00000000E+00  0.00000000E+00  0.00000000E+00
  0.00000000E+00  0.00000000E+00  0.00000000E+00
  0.00000000E+00  0.00000000E+00  0.00000000E+00
  0.00000000E+00  0.00000000E+00  0.00000000E+00
  0.00000000E+00  0.00000000E+00  0.00000000E+00
  0.00000000E+00  0.00000000E+00  0.00000000E+00
  0.00000000E+00  0.00000000E+00  0.00000000E+00
  0.00000000E+00  0.00000000E+00  0.00000000E+00
