 H  C  N Ru                             
   1.00000000000000     
    17.0990259999999985   -9.8721239999999995    0.0000000000000000
     0.0000000000000000   19.7442530000000005    0.0000000000000000
     0.0000000000000000    0.0000000000000000   20.0000000000000000
   H    C    N    Ru
     6   115    14     1
Direct
  0.4324911929740089  0.5078980850204771  0.1180398519114780
  0.5520422522395999  0.4252279640764851  0.1419540808077815
  0.5314129619652830  0.5625957183899696  0.1920741121045832
  0.6847386095038586  0.5769462658038338  0.1341776367909561
  0.6729321771528172  0.6058184798212214  0.2156801060036697
  0.6698386021073410  0.6582676881048309  0.1448986316627535
  0.5301368642136951  0.4666245585886927  0.1384950885200348
  0.5644622441764126  0.5449825975994940  0.1595446414463363
  0.6526648760696760  0.5991599788660965  0.1634051932477711
  0.0197046961101309  0.9806173242564290  0.9917400216212742
  0.1031358493157911  0.0222972717426518  0.9920551088626697
  0.1448296501843703  0.9806975798698981  0.9933910093312721
  0.2283983765188640  0.0228635593122509  0.9949411935995561
  0.2698033923616406  0.9805685526497004  0.9971313814000295
  0.3533172679700378  0.0227634030468252  0.9989921169963504
  0.3948386787670995  0.9803873370690694  0.0001545755668006
  0.4780794127159192  0.0227159176082494  0.0009256804379396
  0.5196488005716944  0.9802845888127015  0.0009264909314922
  0.6029099490689677  0.0226394007474358  0.0006707153729635
  0.6444476718901756  0.9802895467524059  0.9997360446660404
  0.7279364107716435  0.0224401171524779  0.9984018770413362
  0.7693158044625952  0.9801297598182319  0.9964263177676415
  0.8528788668990731  0.0223128017313719  0.9946728924818022
  0.8945277913562694  0.9806981167175499  0.9929666287849406
  0.9779588149779337  0.0223844647103707  0.9920685102477446
  0.0196866258021423  0.1058281917968815  0.9924399092271264
  0.1033205716599704  0.1475298533616881  0.9919536183144175
  0.1448502479931900  0.1059181826521286  0.9919088240863647
  0.2281694127448662  0.1479084593592758  0.9926784477232382
  0.2697142487942379  0.1063107588001688  0.9946377420642741
  0.3535853507810128  0.1489856707706259  0.9973459777664963
  0.3944908995798938  0.1061078101810635  0.9993902752226766
  0.4776297375792232  0.1489267549168307  0.0008756046497072
  0.5193930867529097  0.1065541377941844  0.0012482941600787
  0.6025339159904146  0.1489137029230967  0.0014636622063022
  0.6442982868991863  0.1064574360037160  0.0009103978739784
  0.7274877870250411  0.1480662058008665  0.0001973773405118
  0.7693150139887968  0.1058600488062812  0.9987156120047525
  0.8528041062611292  0.1475979381593147  0.9973909130052160
  0.8945478888769682  0.1058753511662171  0.9952739027884175
  0.9781159281038978  0.1475214321798479  0.9940372386210651
  0.0203413256068835  0.2310970590826461  0.9952315637840614
  0.1037790207804800  0.2724181386968501  0.9943777709652666
  0.1454033196717615  0.2308844373490035  0.9924359086007478
  0.2287624355167699  0.2723108797551761  0.9918757534716757
  0.2696345726187332  0.2312384286294045  0.9922426745557399
  0.3943336271029496  0.2315167682363877  0.9977400876098008
  0.5181410238606001  0.2318492432110690  0.0013074533797556
  0.6008147127774280  0.2754438991903926  0.0016061463159331
  0.6431540366954727  0.2325756243079280  0.0015818093593177
  0.7265888377273960  0.2737870598775984  0.0012462898192459
  0.7687651354716394  0.2316237575364447  0.0005203605845101
  0.8523414574494962  0.2729115541399642  0.9998981063405260
  0.8945838800751212  0.2311045965730379  0.9983170722581295
  0.9779855881244319  0.2724513817632348  0.9975519802742442
  0.0202056306764229  0.3559486271852161  0.9989947410701717
  0.1035561292694008  0.3971259495790267  0.9989059859571272
  0.1465659918593740  0.3563551368598448  0.9967242731796753
  0.2290455198771668  0.3970738189348719  0.9967293770560519
  0.3522640760074044  0.3957750095347559  0.9968876624901372
  0.3930784934280088  0.3548744030447852  0.9983879333829514
  0.5150058168989928  0.3583637268903728  0.0016200966039287
  0.6419905344703714  0.3585365149091783  0.0012326906566266
  0.7250644820074587  0.3995661297436008  0.0010796158584130
  0.7678854424244892  0.3571982868144268  0.0011793557995691
  0.8515320845157643  0.3978497990047681  0.0008866538247934
  0.8939925478012736  0.3560884231254716  0.0004344290203445
  0.9778044797864045  0.3974614180082361  0.0001439716105898
  0.0201207054807925  0.4807131267396274  0.0004582595345826
  0.1039591876215230  0.5220205609142688  0.0004810037317135
  0.1464008578546724  0.4802616521008168  0.0000860741324731
  0.2292594345495684  0.5208377621003324  0.0003917832776027
  0.3555579293513644  0.5182331676397152  0.0003449246968134
  0.6419798570412708  0.4851048037309554  0.9985990077227479
  0.7685287500034658  0.4821072840500489  0.0002890297625937
  0.8514112873344185  0.5227088506707803  0.9998631964180357
  0.8938241029321266  0.4809643794913249  0.0004856230961167
  0.9776748756489858  0.5222857812383439  0.0003034564928429
  0.0199303055355589  0.6055074097502624  0.9995485144192920
  0.1037617970202722  0.6468995751865293  0.9997470461557402
  0.1462066184366691  0.6051362214355951  0.0004990151662348
  0.2298718851176690  0.6458102205128561  0.0008541487152824
  0.2726864398756074  0.6034653543512767  0.0011171866367118
  0.3556831552415682  0.6446025479170436  0.0015445766834263
  0.4821604558027948  0.6448132924399917  0.0014695309622282
  0.6046435992825874  0.6480282684843004  0.0006464820784632
  0.6451911659201767  0.6069466732162688  0.9969373732879520
  0.7686983103712235  0.6060869012891086  0.9964715314077905
  0.8511931962587859  0.6467156657870092  0.9963142424615486
  0.8941629957451382  0.6058471028858998  0.9983563204127510
  0.9774988545665484  0.6470104972300832  0.9982230559917812
  0.0197330793817513  0.7305277924569580  0.9965939592586942
  0.1031297685639706  0.7718738927025453  0.9972250203063563
  0.1453962956242550  0.7300723471305177  0.9989682511710525
  0.2289598263062290  0.7713764457275705  0.9996375851302631
  0.2711346446782164  0.7292107240968012  0.0006473654903189
  0.3545644738906307  0.7704558449461626  0.0009437066574692
  0.3968558373081471  0.7276036303295468  0.0012081944019301
  0.4795908380179069  0.7711636720231304  0.0006259589396883
  0.6031994827948985  0.7713816711628350  0.9987972761577047
  0.7279703451079895  0.7716982674808540  0.9936935203519567
  0.7689604586959562  0.7307532619846017  0.9927666885388142
  0.8523248158928147  0.7721659450728058  0.9927509470544836
  0.8939444151531534  0.7306184677048517  0.9940804358857566
  0.9773960621387554  0.7719110436195282  0.9944879356117112
  0.0195963686844328  0.8554875269033206  0.9932751061248999
  0.1031744705624785  0.8971292820221241  0.9941112735187601
  0.1449205884308827  0.8553955723387821  0.9961633498876986
  0.2284430964696191  0.8971672447807615  0.9974705600942624
  0.2702597006023818  0.8549336742789255  0.9991656647542740
  0.3534459431968588  0.8965638549667247  0.0001021096395480
  0.3952054165842811  0.8541233765109109  0.0007423871583774
  0.4783329571459836  0.8964519642094293  0.0008098892070000
  0.5200853409806527  0.8540406195831296  0.0004655332628028
  0.6032482449238014  0.8968969979276556  0.9997265611522760
  0.6440851056063108  0.8540330709105524  0.9983504765317127
  0.7279526606081038  0.8966845824409093  0.9961964853882360
  0.7694641618683026  0.8550409634331515  0.9940622855385663
  0.8527790546415455  0.8970536612765314  0.9928087197002463
  0.8943670910555827  0.8554933949613722  0.9922973563752293
  0.9780011078496941  0.8971872090350639  0.9921556216656275
  0.3529962849180912  0.2718736580407355  0.9932777512598417
  0.4765777015446965  0.2741222475612395  0.0009406663884081
  0.2695200824365364  0.3557866855730514  0.9919888058385818
  0.4730937874593261  0.3937784869933141  0.0040357425717226
  0.5993929675564903  0.4015461345214880 -0.0002418388537558
  0.2719743118137992  0.4794922068344576  0.9997668200922292
  0.3915035446222472  0.4759307032504301  0.0022554933457285
  0.6061965736688918  0.5267510792555772  0.9994483291309971
  0.7259645599564211  0.5236184781438812  0.9996509850194614
  0.3984753763418387  0.6017177853191372  0.0012688373039406
  0.5247643288225257  0.6096178619006903  0.0100952258779352
  0.7282250452063410  0.6473361899059865  0.9925825156733835
  0.5210182487699754  0.7287687412133386  0.0002997862086511
  0.6446025081553417  0.7309701537806400  0.9954990711716343
  0.4937815864756578  0.5034021585691422  0.0674875293910572
 
  0.00000000E+00  0.00000000E+00  0.00000000E+00
  0.00000000E+00  0.00000000E+00  0.00000000E+00
  0.00000000E+00  0.00000000E+00  0.00000000E+00
  0.00000000E+00  0.00000000E+00  0.00000000E+00
  0.00000000E+00  0.00000000E+00  0.00000000E+00
  0.00000000E+00  0.00000000E+00  0.00000000E+00
  0.00000000E+00  0.00000000E+00  0.00000000E+00
  0.00000000E+00  0.00000000E+00  0.00000000E+00
  0.00000000E+00  0.00000000E+00  0.00000000E+00
  0.00000000E+00  0.00000000E+00  0.00000000E+00
  0.00000000E+00  0.00000000E+00  0.00000000E+00
  0.00000000E+00  0.00000000E+00  0.00000000E+00
  0.00000000E+00  0.00000000E+00  0.00000000E+00
  0.00000000E+00  0.00000000E+00  0.00000000E+00
  0.00000000E+00  0.00000000E+00  0.00000000E+00
  0.00000000E+00  0.00000000E+00  0.00000000E+00
  0.00000000E+00  0.00000000E+00  0.00000000E+00
  0.00000000E+00  0.00000000E+00  0.00000000E+00
  0.00000000E+00  0.00000000E+00  0.00000000E+00
  0.00000000E+00  0.00000000E+00  0.00000000E+00
  0.00000000E+00  0.00000000E+00  0.00000000E+00
  0.00000000E+00  0.00000000E+00  0.00000000E+00
  0.00000000E+00  0.00000000E+00  0.00000000E+00
  0.00000000E+00  0.00000000E+00  0.00000000E+00
  0.00000000E+00  0.00000000E+00  0.00000000E+00
  0.00000000E+00  0.00000000E+00  0.00000000E+00
  0.00000000E+00  0.00000000E+00  0.00000000E+00
  0.00000000E+00  0.00000000E+00  0.00000000E+00
  0.00000000E+00  0.00000000E+00  0.00000000E+00
  0.00000000E+00  0.00000000E+00  0.00000000E+00
  0.00000000E+00  0.00000000E+00  0.00000000E+00
  0.00000000E+00  0.00000000E+00  0.00000000E+00
  0.00000000E+00  0.00000000E+00  0.00000000E+00
  0.00000000E+00  0.00000000E+00  0.00000000E+00
  0.00000000E+00  0.00000000E+00  0.00000000E+00
  0.00000000E+00  0.00000000E+00  0.00000000E+00
  0.00000000E+00  0.00000000E+00  0.00000000E+00
  0.00000000E+00  0.00000000E+00  0.00000000E+00
  0.00000000E+00  0.00000000E+00  0.00000000E+00
  0.00000000E+00  0.00000000E+00  0.00000000E+00
  0.00000000E+00  0.00000000E+00  0.00000000E+00
  0.00000000E+00  0.00000000E+00  0.00000000E+00
  0.00000000E+00  0.00000000E+00  0.00000000E+00
  0.00000000E+00  0.00000000E+00  0.00000000E+00
  0.00000000E+00  0.00000000E+00  0.00000000E+00
  0.00000000E+00  0.00000000E+00  0.00000000E+00
  0.00000000E+00  0.00000000E+00  0.00000000E+00
  0.00000000E+00  0.00000000E+00  0.00000000E+00
  0.00000000E+00  0.00000000E+00  0.00000000E+00
  0.00000000E+00  0.00000000E+00  0.00000000E+00
  0.00000000E+00  0.00000000E+00  0.00000000E+00
  0.00000000E+00  0.00000000E+00  0.00000000E+00
  0.00000000E+00  0.00000000E+00  0.00000000E+00
  0.00000000E+00  0.00000000E+00  0.00000000E+00
  0.00000000E+00  0.00000000E+00  0.00000000E+00
  0.00000000E+00  0.00000000E+00  0.00000000E+00
  0.00000000E+00  0.00000000E+00  0.00000000E+00
  0.00000000E+00  0.00000000E+00  0.00000000E+00
  0.00000000E+00  0.00000000E+00  0.00000000E+00
  0.00000000E+00  0.00000000E+00  0.00000000E+00
  0.00000000E+00  0.00000000E+00  0.00000000E+00
  0.00000000E+00  0.00000000E+00  0.00000000E+00
  0.00000000E+00  0.00000000E+00  0.00000000E+00
  0.00000000E+00  0.00000000E+00  0.00000000E+00
  0.00000000E+00  0.00000000E+00  0.00000000E+00
  0.00000000E+00  0.00000000E+00  0.00000000E+00
  0.00000000E+00  0.00000000E+00  0.00000000E+00
  0.00000000E+00  0.00000000E+00  0.00000000E+00
  0.00000000E+00  0.00000000E+00  0.00000000E+00
  0.00000000E+00  0.00000000E+00  0.00000000E+00
  0.00000000E+00  0.00000000E+00  0.00000000E+00
  0.00000000E+00  0.00000000E+00  0.00000000E+00
  0.00000000E+00  0.00000000E+00  0.00000000E+00
  0.00000000E+00  0.00000000E+00  0.00000000E+00
  0.00000000E+00  0.00000000E+00  0.00000000E+00
  0.00000000E+00  0.00000000E+00  0.00000000E+00
  0.00000000E+00  0.00000000E+00  0.00000000E+00
  0.00000000E+00  0.00000000E+00  0.00000000E+00
  0.00000000E+00  0.00000000E+00  0.00000000E+00
  0.00000000E+00  0.00000000E+00  0.00000000E+00
  0.00000000E+00  0.00000000E+00  0.00000000E+00
  0.00000000E+00  0.00000000E+00  0.00000000E+00
  0.00000000E+00  0.00000000E+00  0.00000000E+00
  0.00000000E+00  0.00000000E+00  0.00000000E+00
  0.00000000E+00  0.00000000E+00  0.00000000E+00
  0.00000000E+00  0.00000000E+00  0.00000000E+00
  0.00000000E+00  0.00000000E+00  0.00000000E+00
  0.00000000E+00  0.00000000E+00  0.00000000E+00
  0.00000000E+00  0.00000000E+00  0.00000000E+00
  0.00000000E+00  0.00000000E+00  0.00000000E+00
  0.00000000E+00  0.00000000E+00  0.00000000E+00
  0.00000000E+00  0.00000000E+00  0.00000000E+00
  0.00000000E+00  0.00000000E+00  0.00000000E+00
  0.00000000E+00  0.00000000E+00  0.00000000E+00
  0.00000000E+00  0.00000000E+00  0.00000000E+00
  0.00000000E+00  0.00000000E+00  0.00000000E+00
  0.00000000E+00  0.00000000E+00  0.00000000E+00
  0.00000000E+00  0.00000000E+00  0.00000000E+00
  0.00000000E+00  0.00000000E+00  0.00000000E+00
  0.00000000E+00  0.00000000E+00  0.00000000E+00
  0.00000000E+00  0.00000000E+00  0.00000000E+00
  0.00000000E+00  0.00000000E+00  0.00000000E+00
  0.00000000E+00  0.00000000E+00  0.00000000E+00
  0.00000000E+00  0.00000000E+00  0.00000000E+00
  0.00000000E+00  0.00000000E+00  0.00000000E+00
  0.00000000E+00  0.00000000E+00  0.00000000E+00
  0.00000000E+00  0.00000000E+00  0.00000000E+00
  0.00000000E+00  0.00000000E+00  0.00000000E+00
  0.00000000E+00  0.00000000E+00  0.00000000E+00
  0.00000000E+00  0.00000000E+00  0.00000000E+00
  0.00000000E+00  0.00000000E+00  0.00000000E+00
  0.00000000E+00  0.00000000E+00  0.00000000E+00
  0.00000000E+00  0.00000000E+00  0.00000000E+00
  0.00000000E+00  0.00000000E+00  0.00000000E+00
  0.00000000E+00  0.00000000E+00  0.00000000E+00
  0.00000000E+00  0.00000000E+00  0.00000000E+00
  0.00000000E+00  0.00000000E+00  0.00000000E+00
  0.00000000E+00  0.00000000E+00  0.00000000E+00
  0.00000000E+00  0.00000000E+00  0.00000000E+00
  0.00000000E+00  0.00000000E+00  0.00000000E+00
  0.00000000E+00  0.00000000E+00  0.00000000E+00
  0.00000000E+00  0.00000000E+00  0.00000000E+00
  0.00000000E+00  0.00000000E+00  0.00000000E+00
  0.00000000E+00  0.00000000E+00  0.00000000E+00
  0.00000000E+00  0.00000000E+00  0.00000000E+00
  0.00000000E+00  0.00000000E+00  0.00000000E+00
  0.00000000E+00  0.00000000E+00  0.00000000E+00
  0.00000000E+00  0.00000000E+00  0.00000000E+00
  0.00000000E+00  0.00000000E+00  0.00000000E+00
  0.00000000E+00  0.00000000E+00  0.00000000E+00
  0.00000000E+00  0.00000000E+00  0.00000000E+00
  0.00000000E+00  0.00000000E+00  0.00000000E+00
  0.00000000E+00  0.00000000E+00  0.00000000E+00
  0.00000000E+00  0.00000000E+00  0.00000000E+00
  0.00000000E+00  0.00000000E+00  0.00000000E+00
  0.00000000E+00  0.00000000E+00  0.00000000E+00
