 H  C  N Ru                             
   1.00000000000000     
    17.0990259999999985   -9.8721239999999995    0.0000000000000000
     0.0000000000000000   19.7442530000000005    0.0000000000000000
     0.0000000000000000    0.0000000000000000   20.0000000000000000
   H    C    N    Ru
     6   116    13     1
Direct
  0.3922109327558782  0.3788384422751278  0.1386687021050818
  0.4541458656096199  0.3826360619762744  0.2101153538126058
  0.5082239467172833  0.5600481258360658  0.0951330457250578
  0.6345077236552977  0.4886738845178651  0.1388879306184495
  0.5890645599334560  0.4827073094908708  0.2173747548160245
  0.6206734721873969  0.5665412635562929  0.1650970642792621
  0.4504189425975414  0.4055725855194177  0.1611192599106255
  0.5143152697322786  0.4636180620013522  0.1321926239663984
  0.5935902813845594  0.5023072546301151  0.1651095358965204
  0.0236292536739901  0.9813715354016722  0.9924145857911555
  0.1068537793307410  0.0227169061758564  0.9937428511299773
  0.1486507279649497  0.9812226340694246  0.9952923355814044
  0.2321021326631260  0.0232190625209553  0.9968792749773632
  0.2735480726953616  0.9809338658339051  0.9988234003467629
  0.3569149666740618  0.0229705526870392  0.0000204688048369
  0.3984699467344578  0.9807348722640156  0.0008308495879079
  0.4816570924362975  0.0230809165585260  0.0007701431758457
  0.5231918507841415  0.9806507620185231  0.0002446289224833
  0.6064444707662233  0.0232156687408058  0.9991487442290361
  0.6480429907287781  0.9809438052030993  0.9974947647555055
  0.7313919710005371  0.0230753035594835  0.9961400382147846
  0.7729904620094193  0.9812381289091481  0.9940529391388432
  0.8564124497788550  0.0231381435918215  0.9932041733310544
  0.8985657338349085  0.9818441872548155  0.9917958452314906
  0.9817005257541673  0.0231314768702815  0.9921902155914466
  0.0228780726273938  0.1062827240354822  0.9934530461325373
  0.1062625774117039  0.1476046241063707  0.9941409949929102
  0.1481036581123456  0.1061232386487175  0.9941435356129084
  0.2311093344139485  0.1477294738061268  0.9952319016050577
  0.2731169925405875  0.1064998476069833  0.9965951581397203
  0.3570576821956151  0.1490275923205459  0.9985392278544252
  0.3979410013654582  0.1063420412612737  0.0000256098495361
  0.4810243362707747  0.1492827712610298  0.0008257684485711
  0.5227977681505079  0.1069673417999478  0.0008350770837394
  0.6058733000959419  0.1494956583376515  0.0006234475929638
  0.6476103435379998  0.1069978570081085  0.9995951085462859
  0.7307771753564279  0.1487458306739468  0.9989470608151294
  0.7726650149785325  0.1067310420130452  0.9971898098282516
  0.8559550724620543  0.1482225540962590  0.9966863342385116
  0.8977670573919404  0.1065140204033600  0.9947262047306477
  0.9811983572453011  0.1479367305658875  0.9947603236921116
  0.0230396661198958  0.2313396529989996  0.9968856677998915
  0.1062943971271101  0.2723876666312189  0.9974647246507921
  0.1476408201228648  0.2305082704508765  0.9958433241283686
  0.2307641616040972  0.2716179676735856  0.9963817855000096
  0.2721568589207449  0.2308977544939427  0.9955288533133059
  0.3976316893217770  0.2315619376922743  0.9985377006057878
  0.5213890659110584  0.2321714522710654  0.0011334068369495
  0.6040519027494862  0.2761026364759323  0.0015102673092899
  0.6463585229174015  0.2331782631335929  0.0010833239518603
  0.7298310508130644  0.2745772475383112  0.0009249181481759
  0.7719583513656895  0.2323903027004101  0.9999295740366414
  0.8554272432122338  0.2735279173850269  0.9997814910303484
  0.8976341783420525  0.2317441739697751  0.9983793273142438
  0.9808822897504307  0.2728800544484644  0.9986228049852627
  0.0229870359151599  0.3563189240533395  0.0005427054431924
  0.1061979851643067  0.3973230432609802  0.0014953910969970
  0.1486220928586489  0.3561697813466737  0.0002143317289383
  0.2310671914151849  0.3965667244215308  0.0013768606109712
  0.3523843271363332  0.3931935559828674  0.0054359399171521
  0.3942296834105062  0.3533494298263395  0.0000320771704595
  0.5192479205171761  0.3580434125919931  0.0003778265897264
  0.6454227005578472  0.3591148763034250  0.0019070820856552
  0.7284169002336888  0.4004406517751856  0.0013822871067831
  0.7711160070905606  0.3580030897295435  0.0012140290621687
  0.8548297339487569  0.3985260088251044  0.0010095744511441
  0.8970830550787872  0.3567649188778302  0.0007414009382120
  0.9808515152398489  0.3979772508976911  0.0011754755763572
  0.0234468069085239  0.4811817765654323  0.0019141383293408
  0.1072361409438611  0.5223542922087514  0.0029210869966924
  0.1493161328111696  0.4804724319040271  0.0031343471054971
  0.2320997442697380  0.5208501355807129  0.0043407353831952
  0.3573993324506506  0.5181747424607327  0.0114609846040596
  0.6471374405460276  0.4854437500350440  0.0060806716624509
  0.7725624148656065  0.4832248329308688  0.0001413463743562
  0.8554952595496130  0.5236309659403302  0.9998297952203479
  0.8975256513488474  0.4817208281068928  0.0007639697524974
  0.9812872467856125  0.5228661203386796  0.0012503907496335
  0.0239289251189424  0.6061159026240074  0.0008266808421168
  0.1076910214057507  0.6473937811408209  0.0018295634155349
  0.1498545442843397  0.6055011952943365  0.0032271240264382
  0.2334115261163139  0.6460166313370653  0.0042889635973049
  0.2760349744982321  0.6035101892294773  0.0055337221816803
  0.3589593832434890  0.6446939841642308  0.0064807522465491
  0.4858583955986842  0.6452618940496606  0.0056752452389957
  0.6535022898459895  0.6101594059406575  0.0024689540260728
  0.7737983679590744  0.6069711714776144  0.9968250859139238
  0.8563349247733528  0.6479045305247020  0.9963626349438073
  0.8986505866305732  0.6066721192804836  0.9985037556906520
  0.9819777061912388  0.6477721858686402  0.9990269866985756
  0.0241714176177384  0.7312012975582948  0.9977199825781330
  0.1073758259126668  0.7724540613546353  0.9989785491420511
  0.1493928444366905  0.7305168428309695  0.0011492217137215
  0.2328871577032470  0.7717356350892490  0.0020754201178276
  0.2748328311466495  0.7295051341476390  0.0035773406406952
  0.3582500747567782  0.7707409475903387  0.0032822511978272
  0.4003409616016629  0.7278199450210920  0.0039547596839717
  0.4830273575498956  0.7713530114039949  0.0009799659607188
  0.6070130863400077  0.7710286514171293  0.9966182613836587
  0.7334132371791916  0.7735979858782666  0.9920919367285548
  0.7755820536629153  0.7330333205483368  0.9916970871044536
  0.8577855919700724  0.7736065370661662  0.9918311277273658
  0.8991219445848355  0.7316384723035287  0.9940458124978160
  0.9821286132549830  0.7727558670757037  0.9951340064451506
  0.0239970891245669  0.8563292035635138  0.9941162135271112
  0.1072720682347374  0.8977127794265508  0.9957462239806847
  0.1489860753214259  0.8559302390047869  0.9980428271016196
  0.2323420117798517  0.8975731737768536  0.9994030104807566
  0.2741473903048229  0.8553531623968809  0.0011074588101617
  0.3572187244577258  0.8969054102087720  0.0013691045848037
  0.3989277180365909  0.8544383949586465  0.0018789707518528
  0.4820448862078351  0.8967563759953392  0.0006964721953538
  0.5235910059595108  0.8542063732976082  0.9996489604190116
  0.6071678683143810  0.8974169449580063  0.9974290193677244
  0.6481858939920111  0.8553077602556682  0.9955486655982159
  0.7316614286234214  0.8974508777460002  0.9934756815987985
  0.7744951875850490  0.8569133247922345  0.9917704924179302
  0.8574364802827864  0.8985738016333759  0.9910819533195903
  0.8991094098051325  0.8569098864768907  0.9912259207833719
  0.9824051587509987  0.8981637040078518  0.9922655587601680
  0.6506896168077017  0.7331858816390855  0.9947849890848274
  0.5311790475277396  0.6087963559935243  0.0095464437740744
  0.3551884861222376  0.2708465409522104  0.9950808323906046
  0.4798729328062667  0.2746246640864040  0.0007793072802294
  0.2701995106723548  0.3544430511269784  0.9986555409253924
  0.4743543299356084  0.3928924952385509  0.0016485805932555
  0.6021631623201171  0.4025588012708101  0.0027433649992083
  0.2742703343398006  0.4788899941340969  0.0036574234047678
  0.3903997745003442  0.4724831224042341  0.0196907017956755
  0.6147983807184589  0.5329253603235993  0.0141434486542504
  0.7306616026362522  0.5249871909062783  0.9993882230358161
  0.4015271112148326  0.6010149741590175  0.0091281532822967
  0.6129368695858401  0.6507678302216661  0.9999069123503169
  0.7344789998384958  0.6499368713954800  0.9932398977724797
  0.5237675264600040  0.7290075715920811  0.9996952833027348
  0.5019326447174816  0.5019215270935860  0.0362743520742642
 
  0.00000000E+00  0.00000000E+00  0.00000000E+00
  0.00000000E+00  0.00000000E+00  0.00000000E+00
  0.00000000E+00  0.00000000E+00  0.00000000E+00
  0.00000000E+00  0.00000000E+00  0.00000000E+00
  0.00000000E+00  0.00000000E+00  0.00000000E+00
  0.00000000E+00  0.00000000E+00  0.00000000E+00
  0.00000000E+00  0.00000000E+00  0.00000000E+00
  0.00000000E+00  0.00000000E+00  0.00000000E+00
  0.00000000E+00  0.00000000E+00  0.00000000E+00
  0.00000000E+00  0.00000000E+00  0.00000000E+00
  0.00000000E+00  0.00000000E+00  0.00000000E+00
  0.00000000E+00  0.00000000E+00  0.00000000E+00
  0.00000000E+00  0.00000000E+00  0.00000000E+00
  0.00000000E+00  0.00000000E+00  0.00000000E+00
  0.00000000E+00  0.00000000E+00  0.00000000E+00
  0.00000000E+00  0.00000000E+00  0.00000000E+00
  0.00000000E+00  0.00000000E+00  0.00000000E+00
  0.00000000E+00  0.00000000E+00  0.00000000E+00
  0.00000000E+00  0.00000000E+00  0.00000000E+00
  0.00000000E+00  0.00000000E+00  0.00000000E+00
  0.00000000E+00  0.00000000E+00  0.00000000E+00
  0.00000000E+00  0.00000000E+00  0.00000000E+00
  0.00000000E+00  0.00000000E+00  0.00000000E+00
  0.00000000E+00  0.00000000E+00  0.00000000E+00
  0.00000000E+00  0.00000000E+00  0.00000000E+00
  0.00000000E+00  0.00000000E+00  0.00000000E+00
  0.00000000E+00  0.00000000E+00  0.00000000E+00
  0.00000000E+00  0.00000000E+00  0.00000000E+00
  0.00000000E+00  0.00000000E+00  0.00000000E+00
  0.00000000E+00  0.00000000E+00  0.00000000E+00
  0.00000000E+00  0.00000000E+00  0.00000000E+00
  0.00000000E+00  0.00000000E+00  0.00000000E+00
  0.00000000E+00  0.00000000E+00  0.00000000E+00
  0.00000000E+00  0.00000000E+00  0.00000000E+00
  0.00000000E+00  0.00000000E+00  0.00000000E+00
  0.00000000E+00  0.00000000E+00  0.00000000E+00
  0.00000000E+00  0.00000000E+00  0.00000000E+00
  0.00000000E+00  0.00000000E+00  0.00000000E+00
  0.00000000E+00  0.00000000E+00  0.00000000E+00
  0.00000000E+00  0.00000000E+00  0.00000000E+00
  0.00000000E+00  0.00000000E+00  0.00000000E+00
  0.00000000E+00  0.00000000E+00  0.00000000E+00
  0.00000000E+00  0.00000000E+00  0.00000000E+00
  0.00000000E+00  0.00000000E+00  0.00000000E+00
  0.00000000E+00  0.00000000E+00  0.00000000E+00
  0.00000000E+00  0.00000000E+00  0.00000000E+00
  0.00000000E+00  0.00000000E+00  0.00000000E+00
  0.00000000E+00  0.00000000E+00  0.00000000E+00
  0.00000000E+00  0.00000000E+00  0.00000000E+00
  0.00000000E+00  0.00000000E+00  0.00000000E+00
  0.00000000E+00  0.00000000E+00  0.00000000E+00
  0.00000000E+00  0.00000000E+00  0.00000000E+00
  0.00000000E+00  0.00000000E+00  0.00000000E+00
  0.00000000E+00  0.00000000E+00  0.00000000E+00
  0.00000000E+00  0.00000000E+00  0.00000000E+00
  0.00000000E+00  0.00000000E+00  0.00000000E+00
  0.00000000E+00  0.00000000E+00  0.00000000E+00
  0.00000000E+00  0.00000000E+00  0.00000000E+00
  0.00000000E+00  0.00000000E+00  0.00000000E+00
  0.00000000E+00  0.00000000E+00  0.00000000E+00
  0.00000000E+00  0.00000000E+00  0.00000000E+00
  0.00000000E+00  0.00000000E+00  0.00000000E+00
  0.00000000E+00  0.00000000E+00  0.00000000E+00
  0.00000000E+00  0.00000000E+00  0.00000000E+00
  0.00000000E+00  0.00000000E+00  0.00000000E+00
  0.00000000E+00  0.00000000E+00  0.00000000E+00
  0.00000000E+00  0.00000000E+00  0.00000000E+00
  0.00000000E+00  0.00000000E+00  0.00000000E+00
  0.00000000E+00  0.00000000E+00  0.00000000E+00
  0.00000000E+00  0.00000000E+00  0.00000000E+00
  0.00000000E+00  0.00000000E+00  0.00000000E+00
  0.00000000E+00  0.00000000E+00  0.00000000E+00
  0.00000000E+00  0.00000000E+00  0.00000000E+00
  0.00000000E+00  0.00000000E+00  0.00000000E+00
  0.00000000E+00  0.00000000E+00  0.00000000E+00
  0.00000000E+00  0.00000000E+00  0.00000000E+00
  0.00000000E+00  0.00000000E+00  0.00000000E+00
  0.00000000E+00  0.00000000E+00  0.00000000E+00
  0.00000000E+00  0.00000000E+00  0.00000000E+00
  0.00000000E+00  0.00000000E+00  0.00000000E+00
  0.00000000E+00  0.00000000E+00  0.00000000E+00
  0.00000000E+00  0.00000000E+00  0.00000000E+00
  0.00000000E+00  0.00000000E+00  0.00000000E+00
  0.00000000E+00  0.00000000E+00  0.00000000E+00
  0.00000000E+00  0.00000000E+00  0.00000000E+00
  0.00000000E+00  0.00000000E+00  0.00000000E+00
  0.00000000E+00  0.00000000E+00  0.00000000E+00
  0.00000000E+00  0.00000000E+00  0.00000000E+00
  0.00000000E+00  0.00000000E+00  0.00000000E+00
  0.00000000E+00  0.00000000E+00  0.00000000E+00
  0.00000000E+00  0.00000000E+00  0.00000000E+00
  0.00000000E+00  0.00000000E+00  0.00000000E+00
  0.00000000E+00  0.00000000E+00  0.00000000E+00
  0.00000000E+00  0.00000000E+00  0.00000000E+00
  0.00000000E+00  0.00000000E+00  0.00000000E+00
  0.00000000E+00  0.00000000E+00  0.00000000E+00
  0.00000000E+00  0.00000000E+00  0.00000000E+00
  0.00000000E+00  0.00000000E+00  0.00000000E+00
  0.00000000E+00  0.00000000E+00  0.00000000E+00
  0.00000000E+00  0.00000000E+00  0.00000000E+00
  0.00000000E+00  0.00000000E+00  0.00000000E+00
  0.00000000E+00  0.00000000E+00  0.00000000E+00
  0.00000000E+00  0.00000000E+00  0.00000000E+00
  0.00000000E+00  0.00000000E+00  0.00000000E+00
  0.00000000E+00  0.00000000E+00  0.00000000E+00
  0.00000000E+00  0.00000000E+00  0.00000000E+00
  0.00000000E+00  0.00000000E+00  0.00000000E+00
  0.00000000E+00  0.00000000E+00  0.00000000E+00
  0.00000000E+00  0.00000000E+00  0.00000000E+00
  0.00000000E+00  0.00000000E+00  0.00000000E+00
  0.00000000E+00  0.00000000E+00  0.00000000E+00
  0.00000000E+00  0.00000000E+00  0.00000000E+00
  0.00000000E+00  0.00000000E+00  0.00000000E+00
  0.00000000E+00  0.00000000E+00  0.00000000E+00
  0.00000000E+00  0.00000000E+00  0.00000000E+00
  0.00000000E+00  0.00000000E+00  0.00000000E+00
  0.00000000E+00  0.00000000E+00  0.00000000E+00
  0.00000000E+00  0.00000000E+00  0.00000000E+00
  0.00000000E+00  0.00000000E+00  0.00000000E+00
  0.00000000E+00  0.00000000E+00  0.00000000E+00
  0.00000000E+00  0.00000000E+00  0.00000000E+00
  0.00000000E+00  0.00000000E+00  0.00000000E+00
  0.00000000E+00  0.00000000E+00  0.00000000E+00
  0.00000000E+00  0.00000000E+00  0.00000000E+00
  0.00000000E+00  0.00000000E+00  0.00000000E+00
  0.00000000E+00  0.00000000E+00  0.00000000E+00
  0.00000000E+00  0.00000000E+00  0.00000000E+00
  0.00000000E+00  0.00000000E+00  0.00000000E+00
  0.00000000E+00  0.00000000E+00  0.00000000E+00
  0.00000000E+00  0.00000000E+00  0.00000000E+00
  0.00000000E+00  0.00000000E+00  0.00000000E+00
  0.00000000E+00  0.00000000E+00  0.00000000E+00
  0.00000000E+00  0.00000000E+00  0.00000000E+00
  0.00000000E+00  0.00000000E+00  0.00000000E+00
  0.00000000E+00  0.00000000E+00  0.00000000E+00
  0.00000000E+00  0.00000000E+00  0.00000000E+00
