 H  C  N Ru                             
   1.00000000000000     
    17.0990259999999985   -9.8721239999999995    0.0000000000000000
     0.0000000000000000   19.7442530000000005    0.0000000000000000
     0.0000000000000000    0.0000000000000000   20.0000000000000000
   H    C    N    Ru
     6   116    13     1
Direct
  0.5653780748303476  0.4513941218755032  0.1340133098240288
  0.5035939711676531  0.5556608553736558  0.0956686519092562
  0.4755019381286510  0.4105607393601206  0.2246106210371180
  0.4061837297366654  0.5057493388398107  0.1764272020502897
  0.3643213850033132  0.4275926469588354  0.2352539540644241
  0.3467536148627892  0.4084176423410574  0.1482564235573545
  0.5134273731344303  0.4579122928947738  0.1295056223200015
  0.4632008535791542  0.4362948730611203  0.1808333919172543
  0.3913805418815324  0.4447371281503207  0.1855984547830614
  0.0224663137622502  0.9790269963103502  0.9921800003397038
  0.1057046890710994  0.0204098515262524  0.9922911528719423
  0.1474766018199979  0.9788918039385733  0.9939796490520287
  0.2309590397212510  0.0209231633979506  0.9950451768367462
  0.2723588742849017  0.9786137631873726  0.9975355119690683
  0.3557335150254474  0.0206310065814272  0.9989686624692937
  0.3972675532981562  0.9783530259423668  0.0003321964931054
  0.4804744822212104  0.0207042832447161  0.0005679281265914
  0.5220307756913453  0.9782879289216985  0.0004733506519575
  0.6052988987986822  0.0208849466881608  0.9994736324688082
  0.6469123374130158  0.9786164345084987  0.9982390036281117
  0.7302656568008141  0.0207409751690716  0.9967094307940318
  0.7718460282436270  0.9788853928048621  0.9952556105329833
  0.8552681602956740  0.0208116034077197  0.9937354155264901
  0.8974283314524419  0.9795075991581303  0.9927332319687255
  0.9805589280893930  0.0208198549771884  0.9918177928566251
  0.0217813919287717  0.1040007766912518  0.9916992780752704
  0.1052003392570589  0.1453701717584608  0.9913136847973234
  0.1470133086446200  0.1038592576444049  0.9915213918774445
  0.2300566554654683  0.1455015022543533  0.9919791516540998
  0.2720226373871290  0.1042210924181829  0.9939900182663582
  0.3559352378225437  0.1467266307008779  0.9963576169742226
  0.3967673481019168  0.1040001440468134  0.9987575257760297
  0.4798550214430062  0.1469146966878001  0.0000725298508707
  0.5216381448968392  0.1045991165676569  0.0004857783749441
  0.6047306397024976  0.1471466964987811  0.0004807065746998
  0.6464826633411720  0.1046645618937009  0.9996074415340360
  0.7296617488716135  0.1464152654902199  0.9987734700298484
  0.7715447726484721  0.1044098077875588  0.9970501760616368
  0.8548094208357362  0.1459206496289102  0.9959696433956953
  0.8966339799776658  0.1042068099645861  0.9940500984073176
  0.9800928354395533  0.1456564482765629  0.9930581276310383
  0.0219841604695898  0.2291013239702321  0.9945062195008521
  0.1052604962485344  0.2701871111550979  0.9941782473489099
  0.1466166439748602  0.2283144278025079  0.9921492126076401
  0.2297428096918602  0.2694184249923431  0.9919808943847530
  0.2711297464690123  0.2286740921338970  0.9914037421574484
  0.3965112485258499  0.2292212513801348  0.9960749415030417
  0.5202182166174253  0.2297787944300003  0.0005455852617454
  0.6028886270574280  0.2737035596431506  0.0015395392775457
  0.6452358848022728  0.2308317681360322  0.0010520213577978
  0.7287220721220187  0.2722212851458570  0.0009811340685932
  0.7708368199560960  0.2300360761329124  0.9996558471813306
  0.8542950228043292  0.2711692360531064  0.9991513890119668
  0.8964937086767097  0.2294207093480854  0.9972458022792690
  0.9797741088294185  0.2705703129761404  0.9968417642230801
  0.0218753566743557  0.3539940466111117  0.9989024451107165
  0.1051063800400039  0.3949931959203937  0.9993330824920807
  0.1475827789198478  0.3539339782578674  0.9970694415587351
  0.2300220559801200  0.3943460836344962  0.9977713118475220
  0.3513185435698926  0.3908364590685008  0.0015336856225012
  0.3931607430536728  0.3510200640007481  0.9970514563969277
  0.5181157122197292  0.3556301244657941  0.9994077320998398
  0.6441879837289594  0.3567355895304247  0.0026295116432869
  0.7272192376468311  0.3980586929269508  0.0024583143813562
  0.7699587920857686  0.3556449345219374  0.0016943259831586
  0.8536682160547775  0.3961652236718869  0.0012552100763773
  0.8959388974479302  0.3544164703934605  0.0003039031361696
  0.9797077968127410  0.3956363302599463  0.0003211961425987
  0.0222818560112191  0.4788448454197755  0.0013185496872767
  0.1060705543505226  0.5199977300929790  0.0019274030287583
  0.1481840111204592  0.4781227560520601  0.0014343627786421
  0.2309396022429587  0.5185102509147820  0.0024683597878007
  0.3561120507650795  0.5157428915151034  0.0090969342727156
  0.6459425326684998  0.4829513066387026  0.0107442004619625
  0.7713065552125843  0.4808881467570835  0.0018089173328088
  0.8542452921897555  0.5212538557477326  0.0011596782317544
  0.8963244520675927  0.4793661081963109  0.0013168076129691
  0.9800923634493505  0.5205136485006711  0.0013395628557435
  0.0227191461689536  0.6037645765954389  0.0010148620473016
  0.1064817876419006  0.6450431898264091  0.0014972954352503
  0.1486607733916496  0.6031474253624980  0.0024397347445930
  0.2322326111708418  0.6436990270006013  0.0034199802771969
  0.2748602240797410  0.6012048939015251  0.0043598360547493
  0.3577623300974123  0.6423707318951148  0.0058082205857550
  0.4846323425128937  0.6429365114900946  0.0064216205222968
  0.6522105625458355  0.6077166471589384  0.0066045810963767
  0.7725520645697717  0.6046295910500142  0.0000672163784092
  0.8551046053520217  0.6455736645394382  0.9990222707655221
  0.8973862188766271  0.6043122019498556  0.0001376065570749
  0.9807409404308552  0.6454265069313408  0.9999593657880131
  0.0229409574575969  0.7288649487316390  0.9985618716053236
  0.1061783379029206  0.7701421186878473  0.9989758765413050
  0.1481724409929080  0.7281931724700286  0.0008060730410979
  0.2316604545764537  0.7694088285592009  0.0015442727048204
  0.2736258727209834  0.7271973307584094  0.0030000084801060
  0.3570363126897246  0.7684097419859091  0.0030100282012903
  0.3991339264455001  0.7255154173896666  0.0038572455315163
  0.4818713573986370  0.7690485537678485  0.0016047680750508
  0.6058960271433659  0.7687413544771597  0.9990318762630035
  0.7322923172116690  0.7712968138089588  0.9964690378830668
  0.7744192802229755  0.7306959687577853  0.9964469771321494
  0.8565895512151701  0.7712757102104607  0.9955361908802606
  0.8978875352826000  0.7292951306838570  0.9969378179283203
  0.9808988163418089  0.7704278100573819  0.9967591561303973
  0.0227811754572840  0.8539993637832111  0.9949921472146382
  0.1060647928895428  0.8953938581750419  0.9953996627213120
  0.1477792569353069  0.8536122910080388  0.9975795315548392
  0.2311136128015689  0.8952394982335130  0.9985552058733516
  0.2728928105255727  0.8530020787300088  0.0005285022376092
  0.3559840437848029  0.8945299041839582  0.0009972145417430
  0.3977249505771659  0.8521057968700055  0.0018380683763555
  0.4808629363467152  0.8944008102495019  0.0010713735750325
  0.5224476331989633  0.8518863732355927  0.0004522291048212
  0.6060465042438177  0.8951053129239945  0.9986184742887739
  0.6470728707861005  0.8529969685859786  0.9975663314492469
  0.7305149190650334  0.8950931244913451  0.9957964364981642
  0.7733429332692799  0.8545505979633032  0.9950521602449527
  0.8562749445389460  0.8962274071375446  0.9935580770271560
  0.8979027205371292  0.8545526015832849  0.9938656084921205
  0.9812027007278156  0.8958196505532239  0.9934215292489160
  0.6495923349496620  0.7308834732998747  0.9986904217952871
  0.5298071593106262  0.6064146602845485  0.0113985406900918
  0.3542252377823790  0.2686102398835123  0.9906665810139336
  0.4786940164970025  0.2722110904751811  0.9996988087098297
  0.2692734774543337  0.3523266787229046  0.9935095814586453
  0.4732379044450076  0.3904106455703649  0.0006891445292870
  0.6010291197120226  0.4000553452278667  0.0037420142548472
  0.2730994851654970  0.4766080357736631  0.0010463543857183
  0.3890722673811850  0.4699991345335132  0.0168089593255326
  0.6133819689418379  0.5302872846256347  0.0175959708417197
  0.7295210657250591  0.5227046325035420  0.0018420969234795
  0.4002568944511671  0.5987636651317182  0.0084304334863563
  0.6117807904246355  0.6484864844986595  0.0035389904821369
  0.7333948644064944  0.6477196080362168  0.9984032589291121
  0.5226421839039471  0.7267298017584843  0.0008023416997740
  0.4995680171678624  0.4988884956557276  0.0365334157023931
 
  0.00000000E+00  0.00000000E+00  0.00000000E+00
  0.00000000E+00  0.00000000E+00  0.00000000E+00
  0.00000000E+00  0.00000000E+00  0.00000000E+00
  0.00000000E+00  0.00000000E+00  0.00000000E+00
  0.00000000E+00  0.00000000E+00  0.00000000E+00
  0.00000000E+00  0.00000000E+00  0.00000000E+00
  0.00000000E+00  0.00000000E+00  0.00000000E+00
  0.00000000E+00  0.00000000E+00  0.00000000E+00
  0.00000000E+00  0.00000000E+00  0.00000000E+00
  0.00000000E+00  0.00000000E+00  0.00000000E+00
  0.00000000E+00  0.00000000E+00  0.00000000E+00
  0.00000000E+00  0.00000000E+00  0.00000000E+00
  0.00000000E+00  0.00000000E+00  0.00000000E+00
  0.00000000E+00  0.00000000E+00  0.00000000E+00
  0.00000000E+00  0.00000000E+00  0.00000000E+00
  0.00000000E+00  0.00000000E+00  0.00000000E+00
  0.00000000E+00  0.00000000E+00  0.00000000E+00
  0.00000000E+00  0.00000000E+00  0.00000000E+00
  0.00000000E+00  0.00000000E+00  0.00000000E+00
  0.00000000E+00  0.00000000E+00  0.00000000E+00
  0.00000000E+00  0.00000000E+00  0.00000000E+00
  0.00000000E+00  0.00000000E+00  0.00000000E+00
  0.00000000E+00  0.00000000E+00  0.00000000E+00
  0.00000000E+00  0.00000000E+00  0.00000000E+00
  0.00000000E+00  0.00000000E+00  0.00000000E+00
  0.00000000E+00  0.00000000E+00  0.00000000E+00
  0.00000000E+00  0.00000000E+00  0.00000000E+00
  0.00000000E+00  0.00000000E+00  0.00000000E+00
  0.00000000E+00  0.00000000E+00  0.00000000E+00
  0.00000000E+00  0.00000000E+00  0.00000000E+00
  0.00000000E+00  0.00000000E+00  0.00000000E+00
  0.00000000E+00  0.00000000E+00  0.00000000E+00
  0.00000000E+00  0.00000000E+00  0.00000000E+00
  0.00000000E+00  0.00000000E+00  0.00000000E+00
  0.00000000E+00  0.00000000E+00  0.00000000E+00
  0.00000000E+00  0.00000000E+00  0.00000000E+00
  0.00000000E+00  0.00000000E+00  0.00000000E+00
  0.00000000E+00  0.00000000E+00  0.00000000E+00
  0.00000000E+00  0.00000000E+00  0.00000000E+00
  0.00000000E+00  0.00000000E+00  0.00000000E+00
  0.00000000E+00  0.00000000E+00  0.00000000E+00
  0.00000000E+00  0.00000000E+00  0.00000000E+00
  0.00000000E+00  0.00000000E+00  0.00000000E+00
  0.00000000E+00  0.00000000E+00  0.00000000E+00
  0.00000000E+00  0.00000000E+00  0.00000000E+00
  0.00000000E+00  0.00000000E+00  0.00000000E+00
  0.00000000E+00  0.00000000E+00  0.00000000E+00
  0.00000000E+00  0.00000000E+00  0.00000000E+00
  0.00000000E+00  0.00000000E+00  0.00000000E+00
  0.00000000E+00  0.00000000E+00  0.00000000E+00
  0.00000000E+00  0.00000000E+00  0.00000000E+00
  0.00000000E+00  0.00000000E+00  0.00000000E+00
  0.00000000E+00  0.00000000E+00  0.00000000E+00
  0.00000000E+00  0.00000000E+00  0.00000000E+00
  0.00000000E+00  0.00000000E+00  0.00000000E+00
  0.00000000E+00  0.00000000E+00  0.00000000E+00
  0.00000000E+00  0.00000000E+00  0.00000000E+00
  0.00000000E+00  0.00000000E+00  0.00000000E+00
  0.00000000E+00  0.00000000E+00  0.00000000E+00
  0.00000000E+00  0.00000000E+00  0.00000000E+00
  0.00000000E+00  0.00000000E+00  0.00000000E+00
  0.00000000E+00  0.00000000E+00  0.00000000E+00
  0.00000000E+00  0.00000000E+00  0.00000000E+00
  0.00000000E+00  0.00000000E+00  0.00000000E+00
  0.00000000E+00  0.00000000E+00  0.00000000E+00
  0.00000000E+00  0.00000000E+00  0.00000000E+00
  0.00000000E+00  0.00000000E+00  0.00000000E+00
  0.00000000E+00  0.00000000E+00  0.00000000E+00
  0.00000000E+00  0.00000000E+00  0.00000000E+00
  0.00000000E+00  0.00000000E+00  0.00000000E+00
  0.00000000E+00  0.00000000E+00  0.00000000E+00
  0.00000000E+00  0.00000000E+00  0.00000000E+00
  0.00000000E+00  0.00000000E+00  0.00000000E+00
  0.00000000E+00  0.00000000E+00  0.00000000E+00
  0.00000000E+00  0.00000000E+00  0.00000000E+00
  0.00000000E+00  0.00000000E+00  0.00000000E+00
  0.00000000E+00  0.00000000E+00  0.00000000E+00
  0.00000000E+00  0.00000000E+00  0.00000000E+00
  0.00000000E+00  0.00000000E+00  0.00000000E+00
  0.00000000E+00  0.00000000E+00  0.00000000E+00
  0.00000000E+00  0.00000000E+00  0.00000000E+00
  0.00000000E+00  0.00000000E+00  0.00000000E+00
  0.00000000E+00  0.00000000E+00  0.00000000E+00
  0.00000000E+00  0.00000000E+00  0.00000000E+00
  0.00000000E+00  0.00000000E+00  0.00000000E+00
  0.00000000E+00  0.00000000E+00  0.00000000E+00
  0.00000000E+00  0.00000000E+00  0.00000000E+00
  0.00000000E+00  0.00000000E+00  0.00000000E+00
  0.00000000E+00  0.00000000E+00  0.00000000E+00
  0.00000000E+00  0.00000000E+00  0.00000000E+00
  0.00000000E+00  0.00000000E+00  0.00000000E+00
  0.00000000E+00  0.00000000E+00  0.00000000E+00
  0.00000000E+00  0.00000000E+00  0.00000000E+00
  0.00000000E+00  0.00000000E+00  0.00000000E+00
  0.00000000E+00  0.00000000E+00  0.00000000E+00
  0.00000000E+00  0.00000000E+00  0.00000000E+00
  0.00000000E+00  0.00000000E+00  0.00000000E+00
  0.00000000E+00  0.00000000E+00  0.00000000E+00
  0.00000000E+00  0.00000000E+00  0.00000000E+00
  0.00000000E+00  0.00000000E+00  0.00000000E+00
  0.00000000E+00  0.00000000E+00  0.00000000E+00
  0.00000000E+00  0.00000000E+00  0.00000000E+00
  0.00000000E+00  0.00000000E+00  0.00000000E+00
  0.00000000E+00  0.00000000E+00  0.00000000E+00
  0.00000000E+00  0.00000000E+00  0.00000000E+00
  0.00000000E+00  0.00000000E+00  0.00000000E+00
  0.00000000E+00  0.00000000E+00  0.00000000E+00
  0.00000000E+00  0.00000000E+00  0.00000000E+00
  0.00000000E+00  0.00000000E+00  0.00000000E+00
  0.00000000E+00  0.00000000E+00  0.00000000E+00
  0.00000000E+00  0.00000000E+00  0.00000000E+00
  0.00000000E+00  0.00000000E+00  0.00000000E+00
  0.00000000E+00  0.00000000E+00  0.00000000E+00
  0.00000000E+00  0.00000000E+00  0.00000000E+00
  0.00000000E+00  0.00000000E+00  0.00000000E+00
  0.00000000E+00  0.00000000E+00  0.00000000E+00
  0.00000000E+00  0.00000000E+00  0.00000000E+00
  0.00000000E+00  0.00000000E+00  0.00000000E+00
  0.00000000E+00  0.00000000E+00  0.00000000E+00
  0.00000000E+00  0.00000000E+00  0.00000000E+00
  0.00000000E+00  0.00000000E+00  0.00000000E+00
  0.00000000E+00  0.00000000E+00  0.00000000E+00
  0.00000000E+00  0.00000000E+00  0.00000000E+00
  0.00000000E+00  0.00000000E+00  0.00000000E+00
  0.00000000E+00  0.00000000E+00  0.00000000E+00
  0.00000000E+00  0.00000000E+00  0.00000000E+00
  0.00000000E+00  0.00000000E+00  0.00000000E+00
  0.00000000E+00  0.00000000E+00  0.00000000E+00
  0.00000000E+00  0.00000000E+00  0.00000000E+00
  0.00000000E+00  0.00000000E+00  0.00000000E+00
  0.00000000E+00  0.00000000E+00  0.00000000E+00
  0.00000000E+00  0.00000000E+00  0.00000000E+00
  0.00000000E+00  0.00000000E+00  0.00000000E+00
  0.00000000E+00  0.00000000E+00  0.00000000E+00
  0.00000000E+00  0.00000000E+00  0.00000000E+00
  0.00000000E+00  0.00000000E+00  0.00000000E+00
