 H  C  N Ru                             
   1.00000000000000     
    17.0990259999999985   -9.8721239999999995    0.0000000000000000
     0.0000000000000000   19.7442530000000005    0.0000000000000000
     0.0000000000000000    0.0000000000000000   20.0000000000000000
   H    C    N    Ru
     6   115    14     1
Direct
  0.5089008302152522  0.4391222989129865  0.1893169566621407
  0.6001824523295842  0.4655546901474186  0.1445639527492985
  0.4257984696717944  0.4716729679528094  0.1158179480523618
  0.6811380362481330  0.6426128608411446  0.1610465889099316
  0.6103278235683773  0.6359804570058557  0.2188005713675007
  0.6177733406160361  0.6800562996000830  0.1388690126453788
  0.5511438449783345  0.4767957281307220  0.1514809412043081
  0.5643729621788074  0.5535864767314125  0.1396092154754986
  0.6207987422790883  0.6326302460463127  0.1649748191971126
  0.0204699468638519  0.9788204902919033  0.9948866770475456
  0.1038666761288772  0.0204673672466046  0.9949527387555863
  0.1455736416960659  0.9788797456903643  0.9959943887419298
  0.2291586251860288  0.0210711857460358  0.9966808658592352
  0.2705326035049490  0.9787548214166962  0.9982182757458519
  0.3540223976494564  0.0209507753920863  0.9991024927015202
  0.3955405826106647  0.9785789349855437  0.9999622882865119
  0.4787850181247408  0.0209656577818495  0.0002611797070833
  0.5203491158477250  0.9785219005956106  0.0004106503736273
  0.6036064435476646  0.0208537946811168  0.0001113053349280
  0.6451378583473816  0.9784916108581273  0.9994875074377255
  0.7286402628091817  0.0206600629550534  0.9984685266376432
  0.7700263714148969  0.9783440181509835  0.9970493498679037
  0.8535960282140247  0.0205201581851193  0.9961961995888410
  0.8952872893327828  0.9789267671664797  0.9952396631785587
  0.9787060981758532  0.0205934954686645  0.9948779329110256
  0.0203972500567350  0.1040088691699453  0.9947729949269390
  0.1040046548201614  0.1456702900354323  0.9939809698602946
  0.1455527805501755  0.1040921819205673  0.9941821245565422
  0.2288389827051592  0.1460534792844544  0.9942405103194827
  0.2704737652415796  0.1045052140534938  0.9959387733030597
  0.3543481313731006  0.1472146917515895  0.9975895545231509
  0.3951940303178407  0.1043454644433712  0.9990183370269466
  0.4783310687592080  0.1472358620233137  0.9998946571722722
  0.5200764720693062  0.1048148083099655  0.0002671160564950
  0.6032174895347592  0.1471381089680028  0.0005084994402040
  0.6449913983174574  0.1046869294710894  0.0001740199808361
  0.7281823081548247  0.1462814512602485  0.9997253021784136
  0.7700280399877754  0.1040707233596928  0.9987203139921833
  0.8535375072437773  0.1458295592165481  0.9978633696229582
  0.8952698309522119  0.1040918763890967  0.9965971095870246
  0.9788332020065521  0.1457334032422577  0.9956749891254647
  0.0210786829989186  0.2293244091084944  0.9960893339600909
  0.1045031677691395  0.2706201993361197  0.9950042418281803
  0.1460339143799936  0.2289947004904299  0.9935554942110542
  0.2293210206307988  0.2703519539907604  0.9925229439387147
  0.2702147303320721  0.2293384456181698  0.9930880616463224
  0.3951110712471345  0.2298041086118632  0.9978257510953072
  0.5188098345873007  0.2301581884367900  0.0003006820150689
  0.6015206043714298  0.2736515379537544  0.0009651593254595
  0.6438453323250101  0.2307848333833304  0.0007928596595980
  0.7272993699999217  0.2719970412933632  0.0006610662284229
  0.7694895100195004  0.2298552192218255  0.0000345789485580
  0.8530779053512223  0.2711284002899888  0.9995822173508976
  0.8953630659863534  0.2293348909383205  0.9984370123847782
  0.9787618531916508  0.2706934908891889  0.9977941295089654
  0.0210225448980291  0.3542088345001191  0.9988725979319669
  0.1043795685173033  0.3953809533904575  0.9988429118331609
  0.1473353383740250  0.3545423132663473  0.9967445477525018
  0.2298323012024937  0.3952145101878538  0.9965388828418804
  0.3530328910773008  0.3940646689277218  0.9953051998012096
  0.3933532810828654  0.3528506252498681  0.9994612027563524
  0.5158981859667455  0.3565851509766929  0.0015023315970186
  0.6427013196776320  0.3566646214251325  0.0012126338681831
  0.7257920091760435  0.3977487529442016  0.0008265566250579
  0.7686049821537356  0.3553831491906086  0.0007236732120531
  0.8522772215641523  0.3960297276696768  0.0004285171539313
  0.8947403696268591  0.3542934726842345  0.0000038460967311
  0.9785982452803453  0.3956937805787978  0.9998366064624241
  0.0209264027217207  0.4788953928305679  0.0003055779559987
  0.1047879473660581  0.5201985454160329  0.0005313617132111
  0.1472318364726167  0.4784765148513488  0.0001247105996635
  0.2301763619505101  0.5190383134376781  0.0007758671572513
  0.3568188691172689  0.5163095895244973  0.9985424059505218
  0.6430789534502228  0.4831207679599794  0.0000927385587533
  0.7693390356639838  0.4802822341837765  0.0000646656233485
  0.8522149941967094  0.5208759967463737  0.9998367765915638
  0.8946157643596587  0.4791401715469326  0.0002833031277337
  0.9784638687503540  0.5204523462588893  0.0003356251189873
  0.0207309502493164  0.6036613502637133  0.0001247350017246
  0.1045573081859012  0.6450483624741549  0.0004617377583865
  0.1470387851240287  0.6033041308271092  0.0009067642684734
  0.2306797637007253  0.6439480266437263  0.0012526485292856
  0.2735125732262026  0.6015780658580416  0.0013779392394593
  0.3565560673626535  0.6426890596904242  0.0016341511051181
  0.4832269165055380  0.6430416615486965  0.0029649579048377
  0.6053004900539443  0.6461417988572499  0.9995944374099957
  0.6461793626776284  0.6052860869178198  0.9965645972342594
  0.7695993612445997  0.6042381191219196  0.9965745152537857
  0.8519807665812040  0.6448314510343893  0.9970590773790020
  0.8949884955180256  0.6039813606003547  0.9989393297169599
  0.9782969604524726  0.6451606776017471  0.9991963161110847
  0.0205021728683466  0.7286818963336308  0.9982553620751439
  0.1038666313143623  0.7700267503380814  0.9988455687484061
  0.1461541919550594  0.7282147889683681  0.0000354269210976
  0.2297159366666092  0.7695096345459286  0.0004449103119907
  0.2719035063281616  0.7273491883589942  0.0011265599054195
  0.3553337199064201  0.7686108112629289  0.0012314209309272
  0.3976630370186069  0.7257510844056811  0.0014529794093625
  0.4803296508293199  0.7693992373975367  0.0009345090924002
  0.6039971964981068  0.7696007460090060  0.9984202152600332
  0.7288445479139595  0.7699803755450411  0.9936509158667918
  0.7698608263567720  0.7290679636550061  0.9931016858587094
  0.8531830982677587  0.7704254459573971  0.9941797858001605
  0.8947559659392518  0.7288054046320683  0.9955869932487836
  0.9781537814627600  0.7700713229880849  0.9965970582514045
  0.0203553814839456  0.8536664093390888  0.9960184875677328
  0.1039235902781751  0.8953060006441940  0.9967124518508417
  0.1456662201201731  0.8535542698747696  0.9980775036938926
  0.2291568773127926  0.8953243735899441  0.9987812180022395
  0.2709826075662164  0.8530930119517418  0.9999442887134452
  0.3541582056261644  0.8947289811196986  0.0003083718330733
  0.3959265870782435  0.8522775000053926  0.0008174974915818
  0.4790621674367080  0.8946844942017637  0.0006058963399579
  0.5208131254798063  0.8522935877286565  0.0004439471950783
  0.6039502007099159  0.8950890205445451  0.9996283438138903
  0.6448070802201684  0.8522016196110308  0.9982302477524115
  0.7286994275591547  0.8949060953132606  0.9964820742007701
  0.7702651208786572  0.8533132543103664  0.9948270582570727
  0.8535788282696072  0.8953019441701934  0.9947037359178805
  0.8951715280344800  0.8537387682554491  0.9945390933600265
  0.9787792049754044  0.8953894797851145  0.9951158382633560
  0.3535787753914161  0.2700540992762275  0.9936958921064387
  0.4773172383058194  0.2725721499334863  0.9999125661048601
  0.2700975920186881  0.3538395845700547  0.9917678198721090
  0.4731588608591632  0.3915955584016625  0.0086407658067008
  0.5999471586459035  0.3996771052207871  0.0006787979270192
  0.2727700483172524  0.4775350528713129  0.0004527986065167
  0.3928323725300538  0.4745130659256476  0.9967748976477161
  0.6074677422220826  0.5252594941299172  0.0006001458300195
  0.7267820973859009  0.5217330015148922  0.9994264927696742
  0.3992872624491373  0.5996906549499195  0.0006939365992468
  0.5254212953660291  0.6077149434963270  0.0092771258627706
  0.7292502993558642  0.6457166773891357  0.9922256993362770
  0.5217881326768540  0.7270400130628474  0.0008448178005482
  0.6453346997573550  0.7291461876864901  0.9943300017034113
  0.5005374135060083  0.4992450722477404  0.0667444189631094
 
  0.00000000E+00  0.00000000E+00  0.00000000E+00
  0.00000000E+00  0.00000000E+00  0.00000000E+00
  0.00000000E+00  0.00000000E+00  0.00000000E+00
  0.00000000E+00  0.00000000E+00  0.00000000E+00
  0.00000000E+00  0.00000000E+00  0.00000000E+00
  0.00000000E+00  0.00000000E+00  0.00000000E+00
  0.00000000E+00  0.00000000E+00  0.00000000E+00
  0.00000000E+00  0.00000000E+00  0.00000000E+00
  0.00000000E+00  0.00000000E+00  0.00000000E+00
  0.00000000E+00  0.00000000E+00  0.00000000E+00
  0.00000000E+00  0.00000000E+00  0.00000000E+00
  0.00000000E+00  0.00000000E+00  0.00000000E+00
  0.00000000E+00  0.00000000E+00  0.00000000E+00
  0.00000000E+00  0.00000000E+00  0.00000000E+00
  0.00000000E+00  0.00000000E+00  0.00000000E+00
  0.00000000E+00  0.00000000E+00  0.00000000E+00
  0.00000000E+00  0.00000000E+00  0.00000000E+00
  0.00000000E+00  0.00000000E+00  0.00000000E+00
  0.00000000E+00  0.00000000E+00  0.00000000E+00
  0.00000000E+00  0.00000000E+00  0.00000000E+00
  0.00000000E+00  0.00000000E+00  0.00000000E+00
  0.00000000E+00  0.00000000E+00  0.00000000E+00
  0.00000000E+00  0.00000000E+00  0.00000000E+00
  0.00000000E+00  0.00000000E+00  0.00000000E+00
  0.00000000E+00  0.00000000E+00  0.00000000E+00
  0.00000000E+00  0.00000000E+00  0.00000000E+00
  0.00000000E+00  0.00000000E+00  0.00000000E+00
  0.00000000E+00  0.00000000E+00  0.00000000E+00
  0.00000000E+00  0.00000000E+00  0.00000000E+00
  0.00000000E+00  0.00000000E+00  0.00000000E+00
  0.00000000E+00  0.00000000E+00  0.00000000E+00
  0.00000000E+00  0.00000000E+00  0.00000000E+00
  0.00000000E+00  0.00000000E+00  0.00000000E+00
  0.00000000E+00  0.00000000E+00  0.00000000E+00
  0.00000000E+00  0.00000000E+00  0.00000000E+00
  0.00000000E+00  0.00000000E+00  0.00000000E+00
  0.00000000E+00  0.00000000E+00  0.00000000E+00
  0.00000000E+00  0.00000000E+00  0.00000000E+00
  0.00000000E+00  0.00000000E+00  0.00000000E+00
  0.00000000E+00  0.00000000E+00  0.00000000E+00
  0.00000000E+00  0.00000000E+00  0.00000000E+00
  0.00000000E+00  0.00000000E+00  0.00000000E+00
  0.00000000E+00  0.00000000E+00  0.00000000E+00
  0.00000000E+00  0.00000000E+00  0.00000000E+00
  0.00000000E+00  0.00000000E+00  0.00000000E+00
  0.00000000E+00  0.00000000E+00  0.00000000E+00
  0.00000000E+00  0.00000000E+00  0.00000000E+00
  0.00000000E+00  0.00000000E+00  0.00000000E+00
  0.00000000E+00  0.00000000E+00  0.00000000E+00
  0.00000000E+00  0.00000000E+00  0.00000000E+00
  0.00000000E+00  0.00000000E+00  0.00000000E+00
  0.00000000E+00  0.00000000E+00  0.00000000E+00
  0.00000000E+00  0.00000000E+00  0.00000000E+00
  0.00000000E+00  0.00000000E+00  0.00000000E+00
  0.00000000E+00  0.00000000E+00  0.00000000E+00
  0.00000000E+00  0.00000000E+00  0.00000000E+00
  0.00000000E+00  0.00000000E+00  0.00000000E+00
  0.00000000E+00  0.00000000E+00  0.00000000E+00
  0.00000000E+00  0.00000000E+00  0.00000000E+00
  0.00000000E+00  0.00000000E+00  0.00000000E+00
  0.00000000E+00  0.00000000E+00  0.00000000E+00
  0.00000000E+00  0.00000000E+00  0.00000000E+00
  0.00000000E+00  0.00000000E+00  0.00000000E+00
  0.00000000E+00  0.00000000E+00  0.00000000E+00
  0.00000000E+00  0.00000000E+00  0.00000000E+00
  0.00000000E+00  0.00000000E+00  0.00000000E+00
  0.00000000E+00  0.00000000E+00  0.00000000E+00
  0.00000000E+00  0.00000000E+00  0.00000000E+00
  0.00000000E+00  0.00000000E+00  0.00000000E+00
  0.00000000E+00  0.00000000E+00  0.00000000E+00
  0.00000000E+00  0.00000000E+00  0.00000000E+00
  0.00000000E+00  0.00000000E+00  0.00000000E+00
  0.00000000E+00  0.00000000E+00  0.00000000E+00
  0.00000000E+00  0.00000000E+00  0.00000000E+00
  0.00000000E+00  0.00000000E+00  0.00000000E+00
  0.00000000E+00  0.00000000E+00  0.00000000E+00
  0.00000000E+00  0.00000000E+00  0.00000000E+00
  0.00000000E+00  0.00000000E+00  0.00000000E+00
  0.00000000E+00  0.00000000E+00  0.00000000E+00
  0.00000000E+00  0.00000000E+00  0.00000000E+00
  0.00000000E+00  0.00000000E+00  0.00000000E+00
  0.00000000E+00  0.00000000E+00  0.00000000E+00
  0.00000000E+00  0.00000000E+00  0.00000000E+00
  0.00000000E+00  0.00000000E+00  0.00000000E+00
  0.00000000E+00  0.00000000E+00  0.00000000E+00
  0.00000000E+00  0.00000000E+00  0.00000000E+00
  0.00000000E+00  0.00000000E+00  0.00000000E+00
  0.00000000E+00  0.00000000E+00  0.00000000E+00
  0.00000000E+00  0.00000000E+00  0.00000000E+00
  0.00000000E+00  0.00000000E+00  0.00000000E+00
  0.00000000E+00  0.00000000E+00  0.00000000E+00
  0.00000000E+00  0.00000000E+00  0.00000000E+00
  0.00000000E+00  0.00000000E+00  0.00000000E+00
  0.00000000E+00  0.00000000E+00  0.00000000E+00
  0.00000000E+00  0.00000000E+00  0.00000000E+00
  0.00000000E+00  0.00000000E+00  0.00000000E+00
  0.00000000E+00  0.00000000E+00  0.00000000E+00
  0.00000000E+00  0.00000000E+00  0.00000000E+00
  0.00000000E+00  0.00000000E+00  0.00000000E+00
  0.00000000E+00  0.00000000E+00  0.00000000E+00
  0.00000000E+00  0.00000000E+00  0.00000000E+00
  0.00000000E+00  0.00000000E+00  0.00000000E+00
  0.00000000E+00  0.00000000E+00  0.00000000E+00
  0.00000000E+00  0.00000000E+00  0.00000000E+00
  0.00000000E+00  0.00000000E+00  0.00000000E+00
  0.00000000E+00  0.00000000E+00  0.00000000E+00
  0.00000000E+00  0.00000000E+00  0.00000000E+00
  0.00000000E+00  0.00000000E+00  0.00000000E+00
  0.00000000E+00  0.00000000E+00  0.00000000E+00
  0.00000000E+00  0.00000000E+00  0.00000000E+00
  0.00000000E+00  0.00000000E+00  0.00000000E+00
  0.00000000E+00  0.00000000E+00  0.00000000E+00
  0.00000000E+00  0.00000000E+00  0.00000000E+00
  0.00000000E+00  0.00000000E+00  0.00000000E+00
  0.00000000E+00  0.00000000E+00  0.00000000E+00
  0.00000000E+00  0.00000000E+00  0.00000000E+00
  0.00000000E+00  0.00000000E+00  0.00000000E+00
  0.00000000E+00  0.00000000E+00  0.00000000E+00
  0.00000000E+00  0.00000000E+00  0.00000000E+00
  0.00000000E+00  0.00000000E+00  0.00000000E+00
  0.00000000E+00  0.00000000E+00  0.00000000E+00
  0.00000000E+00  0.00000000E+00  0.00000000E+00
  0.00000000E+00  0.00000000E+00  0.00000000E+00
  0.00000000E+00  0.00000000E+00  0.00000000E+00
  0.00000000E+00  0.00000000E+00  0.00000000E+00
  0.00000000E+00  0.00000000E+00  0.00000000E+00
  0.00000000E+00  0.00000000E+00  0.00000000E+00
  0.00000000E+00  0.00000000E+00  0.00000000E+00
  0.00000000E+00  0.00000000E+00  0.00000000E+00
  0.00000000E+00  0.00000000E+00  0.00000000E+00
  0.00000000E+00  0.00000000E+00  0.00000000E+00
  0.00000000E+00  0.00000000E+00  0.00000000E+00
  0.00000000E+00  0.00000000E+00  0.00000000E+00
  0.00000000E+00  0.00000000E+00  0.00000000E+00
  0.00000000E+00  0.00000000E+00  0.00000000E+00
  0.00000000E+00  0.00000000E+00  0.00000000E+00
