RuN14                                   
   1.00000000000000     
    17.0990259999999985   -9.8721239999999995    0.0000000000000000
     0.0000000000000000   19.7442530000000005    0.0000000000000000
     0.0000000000000000    0.0000000000000000   20.0000000000000000
   H    C    N    Ru
     6   115    14     1
Selective dynamics
Direct
  0.4352484784189624  0.4076099257040328  0.1399592366602474   T   T   T
  0.5424250881701530  0.4538241799405329  0.1450539734320677   T   T   T
  0.4449292987409087  0.5373526865997162  0.1407382532904282   T   T   T
  0.6249687812164011  0.6038320806912659  0.1458290934021247   T   T   T
  0.5694483091713434  0.6122144764543861  0.2120455228668112   T   T   T
  0.5791697800349157  0.6615317480584701  0.1355843933520493   T   T   T
  0.4921265824623738  0.4597893661546902  0.1304795096947273   T   T   T
  0.4989640191327389  0.5355487581292733  0.1321620525899759   T   T   T
  0.5720621653464625  0.6070006024950204  0.1572402381076017   T   T   T
  0.0210149751450999  0.9791491162715688 -0.0006793510509899   T   T   T
  0.1042564247804835  0.0205292710170943 -0.0009871082201887   T   T   T
  0.1460598401644668  0.9790217828754936 -0.0009379520095277   T   T   T
  0.2295635833143054  0.0210583833287182 -0.0013084024611630   T   T   T
  0.2710318834871250  0.9787939720252156 -0.0004645588774559   T   T   T
  0.3544879071103835  0.0209305965955488 -0.0001980767873679   T   T   T
  0.3960529998864324  0.9787043388356973  0.0002905504390251   T   T   T
  0.4792613510209422  0.0211885301367235  0.0003967958688081   T   T   T
  0.5208658170365538  0.9788832358016276  0.0003881683931474   T   T   T
  0.6040805834702682  0.0213744649019683  0.0002835270225372   T   T   T
  0.6456579291874478  0.9791693060605874 -0.0002447132857794   T   T   T
  0.7291019390763617  0.0212880857311227 -0.0005068484184928   T   T   T
  0.7705782902754729  0.9790342087769535 -0.0013867027281397   T   T   T
  0.8540764111007216  0.0210457759006376 -0.0010146700618954   T   T   T
  0.8958885643212592  0.9795369502300849 -0.0010592226836725   T   T   T
  0.9791341680277261  0.0208967957266845 -0.0007049418329849   T   T   T
  0.0204264247229671  0.1040856776158737 -0.0008454778838061   T   T   T
  0.1038537861664234  0.1455030399159386 -0.0016141474657560   T   T   T
  0.1456027286487958  0.1039535112782025 -0.0018083997777026   T   T   T
  0.2286242520265753  0.1455471447773727 -0.0031185748135300   T   T   T
  0.2705700314892115  0.1042875130640587 -0.0024870765983286   T   T   T
  0.3545671889201142  0.1468888944334084 -0.0018922515140675   T   T   T
  0.3955287275948960  0.1042145728777170 -0.0005097190077537   T   T   T
  0.4786212764080761  0.1472259808145574  0.0000397853678463   T   T   T
  0.5204420545559035  0.1050070250687662  0.0004111602472300   T   T   T
  0.6035566119139796  0.1475277956621913  0.0007048298003196   T   T   T
  0.6453407964431301  0.1051711923897410  0.0005843083661805   T   T   T
  0.7284690650392934  0.1467855075212514  0.0005937105356854   T   T   T
  0.7702939175861158  0.1045740691852474  0.0000607581398284   T   T   T
  0.8537336121643454  0.1462166318758408 -0.0001702042989695   T   T   T
  0.8954560385386646  0.1044693233552223 -0.0005694399186348   T   T   T
  0.9788797629668907  0.1458545857266311 -0.0007264420325638   T   T   T
  0.0208212578864489  0.2293414898916467 -0.0008922788844635   T   T   T
  0.1041028486507269  0.2704456381342825 -0.0016580195724943   T   T   T
  0.1453329789024477  0.2284619874150400 -0.0023689076231726   T   T   T
  0.2284519970153941  0.2695866249330571 -0.0038236654141562   T   T   T
  0.2697202030587948  0.2287176585636365 -0.0046555813930647   T   T   T
  0.3950494158851242  0.2292025898409178 -0.0025833417452707   T   T   T
  0.5190597180803563  0.2300933319664208  0.0003348403368129   T   T   T
  0.6018209216801970  0.2740178379205646  0.0011397420007751   T   T   T
  0.6441407302450931  0.2312035140179813  0.0010049829800910   T   T   T
  0.7275633053124254  0.2724778904585484  0.0009735329830167   T   T   T
  0.7696681626864441  0.2303265681875425  0.0007335213343475   T   T   T
  0.8532069522690642  0.2715233195998549  0.0002455960943295   T   T   T
  0.8953223780266208  0.2296404421144775 -0.0000784336749344   T   T   T
  0.9786757838689606  0.2708868665262691 -0.0005117129226016   T   T   T
  0.0207303553575493  0.3543298224318512 -0.0006662787505094   T   T   T
  0.1040613238313973  0.3953701131280338 -0.0009563342301029   T   T   T
  0.1464102875584565  0.3542921918857303 -0.0014730832852034   T   T   T
  0.2290148798727432  0.3948729807332105 -0.0014943059390102   T   T   T
  0.3503811144998962  0.3915600558937407  0.0029137653163411   T   T   T
  0.3918244225617905  0.3511664607996519 -0.0017178808325883   T   T   T
  0.5164775528505469  0.3557071481818157  0.0001729577636184   T   T   T
  0.6431810645142001  0.3570599933661197  0.0017140154418400   T   T   T
  0.7261947381482782  0.3983066572959120  0.0007231135867909   T   T   T
  0.7689116217844589  0.3559542111624073  0.0005587264817213   T   T   T
  0.8525747285570842  0.3965218464808004 -0.0001932279481343   T   T   T
  0.8948426760043459  0.3546703011103689 -0.0001865776085790   T   T   T
  0.9786197402775816  0.3959562233964328 -0.0005767281925579   T   T   T
  0.0211439303995369  0.4792003423270715 -0.0007021771909615   T   T   T
  0.1049501886739320  0.5203967171189265 -0.0005640208546330   T   T   T
  0.1471308536191560  0.4785665626224923 -0.0007249811573644   T   T   T
  0.2299181370716515  0.5189811612215577 -0.0001964827832728   T   T   T
  0.3552022086056267  0.5163530188720503  0.0064551948680682   T   T   T
  0.6449709841940551  0.4837909205559910  0.0058517074928792   T   T   T
  0.7701944391289015  0.4811001605671552 -0.0005969191977438   T   T   T
  0.8529536399173542  0.5214963600612664 -0.0010303618637555   T   T   T
  0.8951282283968195  0.4796424686727080 -0.0007576724605315   T   T   T
  0.9789238944353448  0.5208216355832199 -0.0007437541429451   T   T   T
  0.0214769364903259  0.6040785208109190 -0.0005548611002533   T   T   T
  0.1052466715113201  0.6453701520073207 -0.0000841197520146   T   T   T
  0.1475159358578121  0.6035230534891852 -0.0000060319407534   T   T   T
  0.2311756870327057  0.6441064572393345  0.0007862297291064   T   T   T
  0.2739049134843177  0.6017581561911222  0.0010444778592254   T   T   T
  0.3569250498355168  0.6430061204816936  0.0019688226049603   T   T   T
  0.4837095400317205  0.6444654088711287  0.0003638883697786   T   T   T
  0.6083524578139701  0.6489385871235103 -0.0030457724981631   T   T   T
  0.6496819392633009  0.6084486280635828  0.0009252285913149   T   T   T
  0.7711147701718084  0.6052042956101393 -0.0021245879764389   T   T   T
  0.8537145580481093  0.6457633556803031 -0.0018456114691524   T   T   T
  0.8960602754586162  0.6046973575498387 -0.0011808444500545   T   T   T
  0.9793864153307095  0.6457172228900343 -0.0007101997898434   T   T   T
  0.0214488317365763  0.7291455997886989 -0.0004915234927555   T   T   T
  0.1048011001510837  0.7703988525062656 -0.0000002159901721   T   T   T
  0.1468980563259238  0.7285112818289764  0.0003107413255088   T   T   T
  0.2304473915528227  0.7697361389811300  0.0007723999212361   T   T   T
  0.2725395648115979  0.7275816960716875  0.0011044996702116   T   T   T
  0.3559803683812487  0.7688563847331068  0.0011361857392569   T   T   T
  0.3982950009636531  0.7260393366717933  0.0013083177877732   T   T   T
  0.4810843102669434  0.7699858001066147  0.0003748612764636   T   T   T
  0.6050741116353318  0.7709094538357297 -0.0029725595339342   T   T   T
  0.7304137096843996  0.7713836207843349 -0.0050216554196493   T   T   T
  0.7716709620875629  0.7304820250607913 -0.0044068475659889   T   T   T
  0.8547822167781749  0.7715932223166228 -0.0027045546316007   T   T   T
  0.8960204927380715  0.7295977779310122 -0.0019625143364360   T   T   T
  0.9793049123177954  0.7706913979112312 -0.0009730374548588   T   T   T
  0.0212436160045471  0.8541780448000076 -0.0007197328638888   T   T   T
  0.1046681067653350  0.8955743084361838 -0.0005009293120181   T   T   T
  0.1463818535752283  0.8538212183212426 -0.0001110620819209   T   T   T
  0.2298356470287457  0.8955028768975866  0.0000751004998523   T   T   T
  0.2716381451881224  0.8532666050274823  0.0005872058635429   T   T   T
  0.3547811412023245  0.8948880166142450  0.0005809965004744   T   T   T
  0.3965727722074285  0.8525485734582040  0.0007463084705971   T   T   T
  0.4796869202201285  0.8950740873941654  0.0004202520161718   T   T   T
  0.5215154599877553  0.8528453731686542  0.0000183800095580   T   T   T
  0.6046145449859829  0.8958841606988138 -0.0006235253598236   T   T   T
  0.6455702351132495  0.8532313098929415 -0.0021383638406469   T   T   T
  0.7295570588802197  0.8958091278912753 -0.0026230237596321   T   T   T
  0.7715013888741827  0.8545206240459201 -0.0032859109866920   T   T   T
  0.8545325240468464  0.8961173421291694 -0.0019218196335135   T   T   T
  0.8962742749578151  0.8545563989113542 -0.0017487549829892   T   T   T
  0.9797090397770334  0.8959559709821170 -0.0008748151564322   T   T   T
  0.3526543799801604  0.2686068814381988 -0.0066763029449471   T   T   T
  0.4774249293417438  0.2723308010706503 -0.0001883646982696   T   T   T
  0.2679986853391728  0.3524689584917211 -0.0035945744337538   T   T   T
  0.4721140112278278  0.3901150052384983  0.0009861757033217   T   T   T
  0.6003967609790815  0.4002918160587934  0.0028015433896551   T   T   T
  0.2720004536482214  0.4771465065373325 -0.0003219228113202   T   T   T
  0.3880903324284396  0.4708357182207132  0.0149483780093451   T   T   T
  0.6119045223229177  0.5293579904401352  0.0139082629487981   T   T   T
  0.7280328691337192  0.5229020893699957 -0.0008059334202602   T   T   T
  0.3996961895734749  0.5997558918248591  0.0029518063263238   T   T   T
  0.5280360164998615  0.6098516574445811  0.0004561665774058   T   T   T
  0.7321238765527599  0.6476206030525600 -0.0047031083000795   T   T   T
  0.5227222561354593  0.7277351019075401 -0.0002456215818761   T   T   T
  0.6474608909092469  0.7314728207429494 -0.0069430536355696   T   T   T
  0.5000618430738313  0.5002759269829996  0.0294465654802106   T   T   T
 
  0.00000000E+00  0.00000000E+00  0.00000000E+00
  0.00000000E+00  0.00000000E+00  0.00000000E+00
  0.00000000E+00  0.00000000E+00  0.00000000E+00
  0.00000000E+00  0.00000000E+00  0.00000000E+00
  0.00000000E+00  0.00000000E+00  0.00000000E+00
  0.00000000E+00  0.00000000E+00  0.00000000E+00
  0.00000000E+00  0.00000000E+00  0.00000000E+00
  0.00000000E+00  0.00000000E+00  0.00000000E+00
  0.00000000E+00  0.00000000E+00  0.00000000E+00
  0.00000000E+00  0.00000000E+00  0.00000000E+00
  0.00000000E+00  0.00000000E+00  0.00000000E+00
  0.00000000E+00  0.00000000E+00  0.00000000E+00
  0.00000000E+00  0.00000000E+00  0.00000000E+00
  0.00000000E+00  0.00000000E+00  0.00000000E+00
  0.00000000E+00  0.00000000E+00  0.00000000E+00
  0.00000000E+00  0.00000000E+00  0.00000000E+00
  0.00000000E+00  0.00000000E+00  0.00000000E+00
  0.00000000E+00  0.00000000E+00  0.00000000E+00
  0.00000000E+00  0.00000000E+00  0.00000000E+00
  0.00000000E+00  0.00000000E+00  0.00000000E+00
  0.00000000E+00  0.00000000E+00  0.00000000E+00
  0.00000000E+00  0.00000000E+00  0.00000000E+00
  0.00000000E+00  0.00000000E+00  0.00000000E+00
  0.00000000E+00  0.00000000E+00  0.00000000E+00
  0.00000000E+00  0.00000000E+00  0.00000000E+00
  0.00000000E+00  0.00000000E+00  0.00000000E+00
  0.00000000E+00  0.00000000E+00  0.00000000E+00
  0.00000000E+00  0.00000000E+00  0.00000000E+00
  0.00000000E+00  0.00000000E+00  0.00000000E+00
  0.00000000E+00  0.00000000E+00  0.00000000E+00
  0.00000000E+00  0.00000000E+00  0.00000000E+00
  0.00000000E+00  0.00000000E+00  0.00000000E+00
  0.00000000E+00  0.00000000E+00  0.00000000E+00
  0.00000000E+00  0.00000000E+00  0.00000000E+00
  0.00000000E+00  0.00000000E+00  0.00000000E+00
  0.00000000E+00  0.00000000E+00  0.00000000E+00
  0.00000000E+00  0.00000000E+00  0.00000000E+00
  0.00000000E+00  0.00000000E+00  0.00000000E+00
  0.00000000E+00  0.00000000E+00  0.00000000E+00
  0.00000000E+00  0.00000000E+00  0.00000000E+00
  0.00000000E+00  0.00000000E+00  0.00000000E+00
  0.00000000E+00  0.00000000E+00  0.00000000E+00
  0.00000000E+00  0.00000000E+00  0.00000000E+00
  0.00000000E+00  0.00000000E+00  0.00000000E+00
  0.00000000E+00  0.00000000E+00  0.00000000E+00
  0.00000000E+00  0.00000000E+00  0.00000000E+00
  0.00000000E+00  0.00000000E+00  0.00000000E+00
  0.00000000E+00  0.00000000E+00  0.00000000E+00
  0.00000000E+00  0.00000000E+00  0.00000000E+00
  0.00000000E+00  0.00000000E+00  0.00000000E+00
  0.00000000E+00  0.00000000E+00  0.00000000E+00
  0.00000000E+00  0.00000000E+00  0.00000000E+00
  0.00000000E+00  0.00000000E+00  0.00000000E+00
  0.00000000E+00  0.00000000E+00  0.00000000E+00
  0.00000000E+00  0.00000000E+00  0.00000000E+00
  0.00000000E+00  0.00000000E+00  0.00000000E+00
  0.00000000E+00  0.00000000E+00  0.00000000E+00
  0.00000000E+00  0.00000000E+00  0.00000000E+00
  0.00000000E+00  0.00000000E+00  0.00000000E+00
  0.00000000E+00  0.00000000E+00  0.00000000E+00
  0.00000000E+00  0.00000000E+00  0.00000000E+00
  0.00000000E+00  0.00000000E+00  0.00000000E+00
  0.00000000E+00  0.00000000E+00  0.00000000E+00
  0.00000000E+00  0.00000000E+00  0.00000000E+00
  0.00000000E+00  0.00000000E+00  0.00000000E+00
  0.00000000E+00  0.00000000E+00  0.00000000E+00
  0.00000000E+00  0.00000000E+00  0.00000000E+00
  0.00000000E+00  0.00000000E+00  0.00000000E+00
  0.00000000E+00  0.00000000E+00  0.00000000E+00
  0.00000000E+00  0.00000000E+00  0.00000000E+00
  0.00000000E+00  0.00000000E+00  0.00000000E+00
  0.00000000E+00  0.00000000E+00  0.00000000E+00
  0.00000000E+00  0.00000000E+00  0.00000000E+00
  0.00000000E+00  0.00000000E+00  0.00000000E+00
  0.00000000E+00  0.00000000E+00  0.00000000E+00
  0.00000000E+00  0.00000000E+00  0.00000000E+00
  0.00000000E+00  0.00000000E+00  0.00000000E+00
  0.00000000E+00  0.00000000E+00  0.00000000E+00
  0.00000000E+00  0.00000000E+00  0.00000000E+00
  0.00000000E+00  0.00000000E+00  0.00000000E+00
  0.00000000E+00  0.00000000E+00  0.00000000E+00
  0.00000000E+00  0.00000000E+00  0.00000000E+00
  0.00000000E+00  0.00000000E+00  0.00000000E+00
  0.00000000E+00  0.00000000E+00  0.00000000E+00
  0.00000000E+00  0.00000000E+00  0.00000000E+00
  0.00000000E+00  0.00000000E+00  0.00000000E+00
  0.00000000E+00  0.00000000E+00  0.00000000E+00
  0.00000000E+00  0.00000000E+00  0.00000000E+00
  0.00000000E+00  0.00000000E+00  0.00000000E+00
  0.00000000E+00  0.00000000E+00  0.00000000E+00
  0.00000000E+00  0.00000000E+00  0.00000000E+00
  0.00000000E+00  0.00000000E+00  0.00000000E+00
  0.00000000E+00  0.00000000E+00  0.00000000E+00
  0.00000000E+00  0.00000000E+00  0.00000000E+00
  0.00000000E+00  0.00000000E+00  0.00000000E+00
  0.00000000E+00  0.00000000E+00  0.00000000E+00
  0.00000000E+00  0.00000000E+00  0.00000000E+00
  0.00000000E+00  0.00000000E+00  0.00000000E+00
  0.00000000E+00  0.00000000E+00  0.00000000E+00
  0.00000000E+00  0.00000000E+00  0.00000000E+00
  0.00000000E+00  0.00000000E+00  0.00000000E+00
  0.00000000E+00  0.00000000E+00  0.00000000E+00
  0.00000000E+00  0.00000000E+00  0.00000000E+00
  0.00000000E+00  0.00000000E+00  0.00000000E+00
  0.00000000E+00  0.00000000E+00  0.00000000E+00
  0.00000000E+00  0.00000000E+00  0.00000000E+00
  0.00000000E+00  0.00000000E+00  0.00000000E+00
  0.00000000E+00  0.00000000E+00  0.00000000E+00
  0.00000000E+00  0.00000000E+00  0.00000000E+00
  0.00000000E+00  0.00000000E+00  0.00000000E+00
  0.00000000E+00  0.00000000E+00  0.00000000E+00
  0.00000000E+00  0.00000000E+00  0.00000000E+00
  0.00000000E+00  0.00000000E+00  0.00000000E+00
  0.00000000E+00  0.00000000E+00  0.00000000E+00
  0.00000000E+00  0.00000000E+00  0.00000000E+00
  0.00000000E+00  0.00000000E+00  0.00000000E+00
  0.00000000E+00  0.00000000E+00  0.00000000E+00
  0.00000000E+00  0.00000000E+00  0.00000000E+00
  0.00000000E+00  0.00000000E+00  0.00000000E+00
  0.00000000E+00  0.00000000E+00  0.00000000E+00
  0.00000000E+00  0.00000000E+00  0.00000000E+00
  0.00000000E+00  0.00000000E+00  0.00000000E+00
  0.00000000E+00  0.00000000E+00  0.00000000E+00
  0.00000000E+00  0.00000000E+00  0.00000000E+00
  0.00000000E+00  0.00000000E+00  0.00000000E+00
  0.00000000E+00  0.00000000E+00  0.00000000E+00
  0.00000000E+00  0.00000000E+00  0.00000000E+00
  0.00000000E+00  0.00000000E+00  0.00000000E+00
  0.00000000E+00  0.00000000E+00  0.00000000E+00
  0.00000000E+00  0.00000000E+00  0.00000000E+00
  0.00000000E+00  0.00000000E+00  0.00000000E+00
  0.00000000E+00  0.00000000E+00  0.00000000E+00
  0.00000000E+00  0.00000000E+00  0.00000000E+00
  0.00000000E+00  0.00000000E+00  0.00000000E+00
  0.00000000E+00  0.00000000E+00  0.00000000E+00
  0.00000000E+00  0.00000000E+00  0.00000000E+00
